*SPEF "ieee 1481-1999"
*DESIGN "async_fifo"
*DATE "06:22:01 Sunday June 07, 2026"
*VENDOR "The OpenROAD Project"
*PROGRAM "OpenROAD"
*VERSION "v2.0-25118-g728f45096f"
*DESIGN_FLOW "NAME_SCOPE LOCAL" "PIN_CAP NONE"
*DIVIDER /
*DELIMITER :
*BUS_DELIMITER []
*T_UNIT 1 NS
*C_UNIT 1 PF
*R_UNIT 1 OHM
*L_UNIT 1 HENRY

*NAME_MAP
*1 data_in[0]
*2 data_in[10]
*3 data_in[11]
*4 data_in[12]
*5 data_in[13]
*6 data_in[14]
*7 data_in[15]
*8 data_in[16]
*9 data_in[17]
*10 data_in[18]
*11 data_in[19]
*12 data_in[1]
*13 data_in[20]
*14 data_in[21]
*15 data_in[22]
*16 data_in[23]
*17 data_in[24]
*18 data_in[25]
*19 data_in[26]
*20 data_in[27]
*21 data_in[28]
*22 data_in[29]
*23 data_in[2]
*24 data_in[30]
*25 data_in[31]
*26 data_in[3]
*27 data_in[4]
*28 data_in[5]
*29 data_in[6]
*30 data_in[7]
*31 data_in[8]
*32 data_in[9]
*33 data_out[0]
*34 data_out[10]
*35 data_out[11]
*36 data_out[12]
*37 data_out[13]
*38 data_out[14]
*39 data_out[15]
*40 data_out[16]
*41 data_out[17]
*42 data_out[18]
*43 data_out[19]
*44 data_out[1]
*45 data_out[20]
*46 data_out[21]
*47 data_out[22]
*48 data_out[23]
*49 data_out[24]
*50 data_out[25]
*51 data_out[26]
*52 data_out[27]
*53 data_out[28]
*54 data_out[29]
*55 data_out[2]
*56 data_out[30]
*57 data_out[31]
*58 data_out[3]
*59 data_out[4]
*60 data_out[5]
*61 data_out[6]
*62 data_out[7]
*63 data_out[8]
*64 data_out[9]
*65 empty
*66 full
*67 rclk
*68 rd_b_ptr[0]
*69 rd_b_ptr[1]
*70 rd_b_ptr[2]
*71 rd_b_ptr[3]
*72 rd_en
*73 rd_g_ptr[0]
*74 rd_g_ptr[1]
*75 rd_g_ptr[2]
*76 rd_g_ptr[3]
*77 rd_g_ptr_ff[0]
*78 rd_g_ptr_ff[1]
*79 rd_g_ptr_ff[2]
*80 rd_g_ptr_ff[3]
*81 rrst_n
*82 wclk
*83 wrst_n
*84 wtr_b_ptr[0]
*85 wtr_b_ptr[1]
*86 wtr_b_ptr[2]
*87 wtr_b_ptr[3]
*88 wtr_en
*89 wtr_g_ptr[0]
*90 wtr_g_ptr[1]
*91 wtr_g_ptr[2]
*92 wtr_g_ptr[3]
*93 wtr_g_ptr_ff[0]
*94 wtr_g_ptr_ff[1]
*95 wtr_g_ptr_ff[2]
*96 wtr_g_ptr_ff[3]
*97 ff_2_read/_00_
*98 ff_2_read/_01_
*99 ff_2_read/_02_
*100 ff_2_read/_03_
*101 ff_2_read/_04_
*102 ff_2_read/_05_
*103 ff_2_read/_06_
*104 ff_2_read/_07_
*105 ff_2_read/ff_1[0]
*106 ff_2_read/ff_1[1]
*107 ff_2_read/ff_1[2]
*108 ff_2_read/ff_1[3]
*109 ff_2_write/_00_
*110 ff_2_write/_01_
*111 ff_2_write/_02_
*112 ff_2_write/_03_
*113 ff_2_write/_04_
*114 ff_2_write/_05_
*115 ff_2_write/_06_
*116 ff_2_write/_07_
*117 ff_2_write/ff_1[0]
*118 ff_2_write/ff_1[1]
*119 ff_2_write/ff_1[2]
*120 ff_2_write/ff_1[3]
*121 memory/_0000_
*122 memory/_0001_
*123 memory/_0002_
*124 memory/_0003_
*125 memory/_0004_
*126 memory/_0005_
*127 memory/_0006_
*128 memory/_0007_
*129 memory/_0008_
*130 memory/_0009_
*131 memory/_0010_
*132 memory/_0011_
*133 memory/_0012_
*134 memory/_0013_
*135 memory/_0014_
*136 memory/_0015_
*137 memory/_0016_
*138 memory/_0017_
*139 memory/_0018_
*140 memory/_0019_
*141 memory/_0020_
*142 memory/_0021_
*143 memory/_0022_
*144 memory/_0023_
*145 memory/_0024_
*146 memory/_0025_
*147 memory/_0026_
*148 memory/_0027_
*149 memory/_0028_
*150 memory/_0029_
*151 memory/_0030_
*152 memory/_0031_
*153 memory/_0032_
*154 memory/_0033_
*155 memory/_0034_
*156 memory/_0035_
*157 memory/_0036_
*158 memory/_0037_
*159 memory/_0038_
*160 memory/_0039_
*161 memory/_0040_
*162 memory/_0041_
*163 memory/_0042_
*164 memory/_0043_
*165 memory/_0044_
*166 memory/_0045_
*167 memory/_0046_
*168 memory/_0047_
*169 memory/_0048_
*170 memory/_0049_
*171 memory/_0050_
*172 memory/_0051_
*173 memory/_0052_
*174 memory/_0053_
*175 memory/_0054_
*176 memory/_0055_
*177 memory/_0056_
*178 memory/_0057_
*179 memory/_0058_
*180 memory/_0059_
*181 memory/_0060_
*182 memory/_0061_
*183 memory/_0062_
*184 memory/_0063_
*185 memory/_0064_
*186 memory/_0065_
*187 memory/_0066_
*188 memory/_0067_
*189 memory/_0068_
*190 memory/_0069_
*191 memory/_0070_
*192 memory/_0071_
*193 memory/_0072_
*194 memory/_0073_
*195 memory/_0074_
*196 memory/_0075_
*197 memory/_0076_
*198 memory/_0077_
*199 memory/_0078_
*200 memory/_0079_
*201 memory/_0080_
*202 memory/_0081_
*203 memory/_0082_
*204 memory/_0083_
*205 memory/_0084_
*206 memory/_0085_
*207 memory/_0086_
*208 memory/_0087_
*209 memory/_0088_
*210 memory/_0089_
*211 memory/_0090_
*212 memory/_0091_
*213 memory/_0092_
*214 memory/_0093_
*215 memory/_0094_
*216 memory/_0095_
*217 memory/_0096_
*218 memory/_0097_
*219 memory/_0098_
*220 memory/_0099_
*221 memory/_0100_
*222 memory/_0101_
*223 memory/_0102_
*224 memory/_0103_
*225 memory/_0104_
*226 memory/_0105_
*227 memory/_0106_
*228 memory/_0107_
*229 memory/_0108_
*230 memory/_0109_
*231 memory/_0110_
*232 memory/_0111_
*233 memory/_0112_
*234 memory/_0113_
*235 memory/_0114_
*236 memory/_0115_
*237 memory/_0116_
*238 memory/_0117_
*239 memory/_0118_
*240 memory/_0119_
*241 memory/_0120_
*242 memory/_0121_
*243 memory/_0122_
*244 memory/_0123_
*245 memory/_0124_
*246 memory/_0125_
*247 memory/_0126_
*248 memory/_0127_
*249 memory/_0128_
*250 memory/_0129_
*251 memory/_0130_
*252 memory/_0131_
*253 memory/_0132_
*254 memory/_0133_
*255 memory/_0134_
*256 memory/_0135_
*257 memory/_0136_
*258 memory/_0137_
*259 memory/_0138_
*260 memory/_0139_
*261 memory/_0140_
*262 memory/_0141_
*263 memory/_0142_
*264 memory/_0143_
*265 memory/_0144_
*266 memory/_0145_
*267 memory/_0146_
*268 memory/_0147_
*269 memory/_0148_
*270 memory/_0149_
*271 memory/_0150_
*272 memory/_0151_
*273 memory/_0152_
*274 memory/_0153_
*275 memory/_0154_
*276 memory/_0155_
*277 memory/_0156_
*278 memory/_0157_
*279 memory/_0158_
*280 memory/_0159_
*281 memory/_0160_
*282 memory/_0161_
*283 memory/_0162_
*284 memory/_0163_
*285 memory/_0164_
*286 memory/_0165_
*287 memory/_0166_
*288 memory/_0167_
*289 memory/_0168_
*290 memory/_0169_
*291 memory/_0170_
*292 memory/_0171_
*293 memory/_0172_
*294 memory/_0173_
*295 memory/_0174_
*296 memory/_0175_
*297 memory/_0176_
*298 memory/_0177_
*299 memory/_0178_
*300 memory/_0179_
*301 memory/_0180_
*302 memory/_0181_
*303 memory/_0182_
*304 memory/_0183_
*305 memory/_0184_
*306 memory/_0185_
*307 memory/_0186_
*308 memory/_0187_
*309 memory/_0188_
*310 memory/_0189_
*311 memory/_0190_
*312 memory/_0191_
*313 memory/_0192_
*314 memory/_0193_
*315 memory/_0194_
*316 memory/_0195_
*317 memory/_0196_
*318 memory/_0197_
*319 memory/_0198_
*320 memory/_0199_
*321 memory/_0200_
*322 memory/_0201_
*323 memory/_0202_
*324 memory/_0203_
*325 memory/_0204_
*326 memory/_0205_
*327 memory/_0206_
*328 memory/_0207_
*329 memory/_0208_
*330 memory/_0209_
*331 memory/_0210_
*332 memory/_0211_
*333 memory/_0212_
*334 memory/_0213_
*335 memory/_0214_
*336 memory/_0215_
*337 memory/_0216_
*338 memory/_0217_
*339 memory/_0218_
*340 memory/_0219_
*341 memory/_0220_
*342 memory/_0221_
*343 memory/_0222_
*344 memory/_0223_
*345 memory/_0224_
*346 memory/_0225_
*347 memory/_0226_
*348 memory/_0227_
*349 memory/_0228_
*350 memory/_0229_
*351 memory/_0230_
*352 memory/_0231_
*353 memory/_0232_
*354 memory/_0233_
*355 memory/_0234_
*356 memory/_0235_
*357 memory/_0236_
*358 memory/_0237_
*359 memory/_0238_
*360 memory/_0239_
*361 memory/_0240_
*362 memory/_0241_
*363 memory/_0242_
*364 memory/_0243_
*365 memory/_0244_
*366 memory/_0245_
*367 memory/_0246_
*368 memory/_0247_
*369 memory/_0248_
*370 memory/_0249_
*371 memory/_0250_
*372 memory/_0251_
*373 memory/_0252_
*374 memory/_0253_
*375 memory/_0254_
*376 memory/_0255_
*377 memory/_0256_
*378 memory/_0257_
*379 memory/_0258_
*380 memory/_0259_
*381 memory/_0260_
*382 memory/_0261_
*383 memory/_0262_
*384 memory/_0263_
*385 memory/_0264_
*386 memory/_0265_
*387 memory/_0266_
*388 memory/_0267_
*389 memory/_0268_
*390 memory/_0269_
*391 memory/_0270_
*392 memory/_0271_
*393 memory/_0272_
*394 memory/_0273_
*395 memory/_0274_
*396 memory/_0275_
*397 memory/_0276_
*398 memory/_0277_
*399 memory/_0278_
*400 memory/_0279_
*401 memory/_0280_
*402 memory/_0281_
*403 memory/_0282_
*404 memory/_0283_
*405 memory/_0284_
*406 memory/_0285_
*407 memory/_0286_
*408 memory/_0287_
*409 memory/_0288_
*410 memory/_0289_
*411 memory/_0290_
*412 memory/_0291_
*413 memory/_0292_
*414 memory/_0293_
*415 memory/_0294_
*416 memory/_0295_
*417 memory/_0296_
*418 memory/_0297_
*419 memory/_0298_
*420 memory/_0299_
*421 memory/_0300_
*422 memory/_0301_
*423 memory/_0302_
*424 memory/_0303_
*425 memory/_0304_
*426 memory/_0305_
*427 memory/_0306_
*428 memory/_0307_
*429 memory/_0308_
*430 memory/_0309_
*431 memory/_0310_
*432 memory/_0311_
*433 memory/_0312_
*434 memory/_0313_
*435 memory/_0314_
*436 memory/_0315_
*437 memory/_0316_
*438 memory/_0317_
*439 memory/_0318_
*440 memory/_0319_
*441 memory/_0320_
*442 memory/_0321_
*443 memory/_0322_
*444 memory/_0323_
*445 memory/_0324_
*446 memory/_0325_
*447 memory/_0326_
*448 memory/_0327_
*449 memory/_0328_
*450 memory/_0329_
*451 memory/_0330_
*452 memory/_0331_
*453 memory/_0332_
*454 memory/_0333_
*455 memory/_0334_
*456 memory/_0335_
*457 memory/_0336_
*458 memory/_0337_
*459 memory/_0338_
*460 memory/_0339_
*461 memory/_0340_
*462 memory/_0341_
*463 memory/_0342_
*464 memory/_0343_
*465 memory/_0344_
*466 memory/_0345_
*467 memory/_0346_
*468 memory/_0347_
*469 memory/_0348_
*470 memory/_0349_
*471 memory/_0350_
*472 memory/_0351_
*473 memory/_0352_
*474 memory/_0353_
*475 memory/_0354_
*476 memory/_0355_
*477 memory/_0356_
*478 memory/_0357_
*479 memory/_0358_
*480 memory/_0359_
*481 memory/_0360_
*482 memory/_0361_
*483 memory/_0362_
*484 memory/_0363_
*485 memory/_0364_
*486 memory/_0365_
*487 memory/_0366_
*488 memory/_0367_
*489 memory/_0368_
*490 memory/_0369_
*491 memory/_0370_
*492 memory/_0371_
*493 memory/_0372_
*494 memory/_0373_
*495 memory/_0374_
*496 memory/_0375_
*497 memory/_0376_
*498 memory/_0377_
*499 memory/_0378_
*500 memory/_0379_
*501 memory/_0380_
*502 memory/_0381_
*503 memory/_0382_
*504 memory/_0383_
*505 memory/_0384_
*506 memory/_0385_
*507 memory/_0386_
*508 memory/_0387_
*509 memory/_0388_
*510 memory/_0389_
*511 memory/_0390_
*512 memory/_0391_
*513 memory/_0392_
*514 memory/_0393_
*515 memory/_0394_
*516 memory/_0395_
*517 memory/_0396_
*518 memory/_0397_
*519 memory/_0398_
*520 memory/_0399_
*521 memory/_0400_
*522 memory/_0401_
*523 memory/_0402_
*524 memory/_0403_
*525 memory/_0404_
*526 memory/_0405_
*527 memory/_0406_
*528 memory/_0407_
*529 memory/_0408_
*530 memory/_0409_
*531 memory/_0410_
*532 memory/_0411_
*533 memory/_0412_
*534 memory/_0413_
*535 memory/_0414_
*536 memory/_0415_
*537 memory/_0416_
*538 memory/_0417_
*539 memory/_0418_
*540 memory/_0419_
*541 memory/_0420_
*542 memory/_0421_
*543 memory/_0422_
*544 memory/_0423_
*545 memory/_0424_
*546 memory/_0425_
*547 memory/_0426_
*548 memory/_0427_
*549 memory/_0428_
*550 memory/_0429_
*551 memory/_0430_
*552 memory/_0431_
*553 memory/_0432_
*554 memory/_0433_
*555 memory/_0434_
*556 memory/_0435_
*557 memory/_0436_
*558 memory/_0437_
*559 memory/mem\[0\][0]
*560 memory/mem\[0\][10]
*561 memory/mem\[0\][11]
*562 memory/mem\[0\][12]
*563 memory/mem\[0\][13]
*564 memory/mem\[0\][14]
*565 memory/mem\[0\][15]
*566 memory/mem\[0\][16]
*567 memory/mem\[0\][17]
*568 memory/mem\[0\][18]
*569 memory/mem\[0\][19]
*570 memory/mem\[0\][1]
*571 memory/mem\[0\][20]
*572 memory/mem\[0\][21]
*573 memory/mem\[0\][22]
*574 memory/mem\[0\][23]
*575 memory/mem\[0\][24]
*576 memory/mem\[0\][25]
*577 memory/mem\[0\][26]
*578 memory/mem\[0\][27]
*579 memory/mem\[0\][28]
*580 memory/mem\[0\][29]
*581 memory/mem\[0\][2]
*582 memory/mem\[0\][30]
*583 memory/mem\[0\][31]
*584 memory/mem\[0\][3]
*585 memory/mem\[0\][4]
*586 memory/mem\[0\][5]
*587 memory/mem\[0\][6]
*588 memory/mem\[0\][7]
*589 memory/mem\[0\][8]
*590 memory/mem\[0\][9]
*591 memory/mem\[1\][0]
*592 memory/mem\[1\][10]
*593 memory/mem\[1\][11]
*594 memory/mem\[1\][12]
*595 memory/mem\[1\][13]
*596 memory/mem\[1\][14]
*597 memory/mem\[1\][15]
*598 memory/mem\[1\][16]
*599 memory/mem\[1\][17]
*600 memory/mem\[1\][18]
*601 memory/mem\[1\][19]
*602 memory/mem\[1\][1]
*603 memory/mem\[1\][20]
*604 memory/mem\[1\][21]
*605 memory/mem\[1\][22]
*606 memory/mem\[1\][23]
*607 memory/mem\[1\][24]
*608 memory/mem\[1\][25]
*609 memory/mem\[1\][26]
*610 memory/mem\[1\][27]
*611 memory/mem\[1\][28]
*612 memory/mem\[1\][29]
*613 memory/mem\[1\][2]
*614 memory/mem\[1\][30]
*615 memory/mem\[1\][31]
*616 memory/mem\[1\][3]
*617 memory/mem\[1\][4]
*618 memory/mem\[1\][5]
*619 memory/mem\[1\][6]
*620 memory/mem\[1\][7]
*621 memory/mem\[1\][8]
*622 memory/mem\[1\][9]
*623 memory/mem\[2\][0]
*624 memory/mem\[2\][10]
*625 memory/mem\[2\][11]
*626 memory/mem\[2\][12]
*627 memory/mem\[2\][13]
*628 memory/mem\[2\][14]
*629 memory/mem\[2\][15]
*630 memory/mem\[2\][16]
*631 memory/mem\[2\][17]
*632 memory/mem\[2\][18]
*633 memory/mem\[2\][19]
*634 memory/mem\[2\][1]
*635 memory/mem\[2\][20]
*636 memory/mem\[2\][21]
*637 memory/mem\[2\][22]
*638 memory/mem\[2\][23]
*639 memory/mem\[2\][24]
*640 memory/mem\[2\][25]
*641 memory/mem\[2\][26]
*642 memory/mem\[2\][27]
*643 memory/mem\[2\][28]
*644 memory/mem\[2\][29]
*645 memory/mem\[2\][2]
*646 memory/mem\[2\][30]
*647 memory/mem\[2\][31]
*648 memory/mem\[2\][3]
*649 memory/mem\[2\][4]
*650 memory/mem\[2\][5]
*651 memory/mem\[2\][6]
*652 memory/mem\[2\][7]
*653 memory/mem\[2\][8]
*654 memory/mem\[2\][9]
*655 memory/mem\[3\][0]
*656 memory/mem\[3\][10]
*657 memory/mem\[3\][11]
*658 memory/mem\[3\][12]
*659 memory/mem\[3\][13]
*660 memory/mem\[3\][14]
*661 memory/mem\[3\][15]
*662 memory/mem\[3\][16]
*663 memory/mem\[3\][17]
*664 memory/mem\[3\][18]
*665 memory/mem\[3\][19]
*666 memory/mem\[3\][1]
*667 memory/mem\[3\][20]
*668 memory/mem\[3\][21]
*669 memory/mem\[3\][22]
*670 memory/mem\[3\][23]
*671 memory/mem\[3\][24]
*672 memory/mem\[3\][25]
*673 memory/mem\[3\][26]
*674 memory/mem\[3\][27]
*675 memory/mem\[3\][28]
*676 memory/mem\[3\][29]
*677 memory/mem\[3\][2]
*678 memory/mem\[3\][30]
*679 memory/mem\[3\][31]
*680 memory/mem\[3\][3]
*681 memory/mem\[3\][4]
*682 memory/mem\[3\][5]
*683 memory/mem\[3\][6]
*684 memory/mem\[3\][7]
*685 memory/mem\[3\][8]
*686 memory/mem\[3\][9]
*687 memory/mem\[4\][0]
*688 memory/mem\[4\][10]
*689 memory/mem\[4\][11]
*690 memory/mem\[4\][12]
*691 memory/mem\[4\][13]
*692 memory/mem\[4\][14]
*693 memory/mem\[4\][15]
*694 memory/mem\[4\][16]
*695 memory/mem\[4\][17]
*696 memory/mem\[4\][18]
*697 memory/mem\[4\][19]
*698 memory/mem\[4\][1]
*699 memory/mem\[4\][20]
*700 memory/mem\[4\][21]
*701 memory/mem\[4\][22]
*702 memory/mem\[4\][23]
*703 memory/mem\[4\][24]
*704 memory/mem\[4\][25]
*705 memory/mem\[4\][26]
*706 memory/mem\[4\][27]
*707 memory/mem\[4\][28]
*708 memory/mem\[4\][29]
*709 memory/mem\[4\][2]
*710 memory/mem\[4\][30]
*711 memory/mem\[4\][31]
*712 memory/mem\[4\][3]
*713 memory/mem\[4\][4]
*714 memory/mem\[4\][5]
*715 memory/mem\[4\][6]
*716 memory/mem\[4\][7]
*717 memory/mem\[4\][8]
*718 memory/mem\[4\][9]
*719 memory/mem\[5\][0]
*720 memory/mem\[5\][10]
*721 memory/mem\[5\][11]
*722 memory/mem\[5\][12]
*723 memory/mem\[5\][13]
*724 memory/mem\[5\][14]
*725 memory/mem\[5\][15]
*726 memory/mem\[5\][16]
*727 memory/mem\[5\][17]
*728 memory/mem\[5\][18]
*729 memory/mem\[5\][19]
*730 memory/mem\[5\][1]
*731 memory/mem\[5\][20]
*732 memory/mem\[5\][21]
*733 memory/mem\[5\][22]
*734 memory/mem\[5\][23]
*735 memory/mem\[5\][24]
*736 memory/mem\[5\][25]
*737 memory/mem\[5\][26]
*738 memory/mem\[5\][27]
*739 memory/mem\[5\][28]
*740 memory/mem\[5\][29]
*741 memory/mem\[5\][2]
*742 memory/mem\[5\][30]
*743 memory/mem\[5\][31]
*744 memory/mem\[5\][3]
*745 memory/mem\[5\][4]
*746 memory/mem\[5\][5]
*747 memory/mem\[5\][6]
*748 memory/mem\[5\][7]
*749 memory/mem\[5\][8]
*750 memory/mem\[5\][9]
*751 memory/mem\[6\][0]
*752 memory/mem\[6\][10]
*753 memory/mem\[6\][11]
*754 memory/mem\[6\][12]
*755 memory/mem\[6\][13]
*756 memory/mem\[6\][14]
*757 memory/mem\[6\][15]
*758 memory/mem\[6\][16]
*759 memory/mem\[6\][17]
*760 memory/mem\[6\][18]
*761 memory/mem\[6\][19]
*762 memory/mem\[6\][1]
*763 memory/mem\[6\][20]
*764 memory/mem\[6\][21]
*765 memory/mem\[6\][22]
*766 memory/mem\[6\][23]
*767 memory/mem\[6\][24]
*768 memory/mem\[6\][25]
*769 memory/mem\[6\][26]
*770 memory/mem\[6\][27]
*771 memory/mem\[6\][28]
*772 memory/mem\[6\][29]
*773 memory/mem\[6\][2]
*774 memory/mem\[6\][30]
*775 memory/mem\[6\][31]
*776 memory/mem\[6\][3]
*777 memory/mem\[6\][4]
*778 memory/mem\[6\][5]
*779 memory/mem\[6\][6]
*780 memory/mem\[6\][7]
*781 memory/mem\[6\][8]
*782 memory/mem\[6\][9]
*783 memory/mem\[7\][0]
*784 memory/mem\[7\][10]
*785 memory/mem\[7\][11]
*786 memory/mem\[7\][12]
*787 memory/mem\[7\][13]
*788 memory/mem\[7\][14]
*789 memory/mem\[7\][15]
*790 memory/mem\[7\][16]
*791 memory/mem\[7\][17]
*792 memory/mem\[7\][18]
*793 memory/mem\[7\][19]
*794 memory/mem\[7\][1]
*795 memory/mem\[7\][20]
*796 memory/mem\[7\][21]
*797 memory/mem\[7\][22]
*798 memory/mem\[7\][23]
*799 memory/mem\[7\][24]
*800 memory/mem\[7\][25]
*801 memory/mem\[7\][26]
*802 memory/mem\[7\][27]
*803 memory/mem\[7\][28]
*804 memory/mem\[7\][29]
*805 memory/mem\[7\][2]
*806 memory/mem\[7\][30]
*807 memory/mem\[7\][31]
*808 memory/mem\[7\][3]
*809 memory/mem\[7\][4]
*810 memory/mem\[7\][5]
*811 memory/mem\[7\][6]
*812 memory/mem\[7\][7]
*813 memory/mem\[7\][8]
*814 memory/mem\[7\][9]
*815 read_pointer/_00_
*816 read_pointer/_01_
*817 read_pointer/_02_
*818 read_pointer/_03_
*819 read_pointer/_04_
*820 read_pointer/_05_
*821 read_pointer/_06_
*822 read_pointer/_07_
*823 read_pointer/_08_
*824 read_pointer/_09_
*825 read_pointer/_10_
*826 read_pointer/_11_
*827 read_pointer/_12_
*828 read_pointer/_13_
*829 read_pointer/_14_
*830 read_pointer/_15_
*831 read_pointer/_16_
*832 read_pointer/_17_
*833 read_pointer/_18_
*834 read_pointer/_19_
*835 write_pointer/_00_
*836 write_pointer/_01_
*837 write_pointer/_02_
*838 write_pointer/_03_
*839 write_pointer/_04_
*840 write_pointer/_05_
*841 write_pointer/_06_
*842 write_pointer/_07_
*843 write_pointer/_08_
*844 write_pointer/_09_
*845 write_pointer/_10_
*846 write_pointer/_11_
*847 write_pointer/_12_
*848 write_pointer/_13_
*849 write_pointer/_14_
*850 write_pointer/_15_
*851 write_pointer/_16_
*852 write_pointer/_17_
*853 write_pointer/_18_
*856 net1
*857 net2
*858 net3
*859 net4
*860 net5
*861 net6
*862 net7
*863 net8
*864 net9
*865 net10
*866 net11
*867 net12
*868 net13
*869 net14
*870 net15
*871 net16
*872 net17
*873 net18
*874 net19
*875 net20
*876 net21
*877 net22
*878 net23
*879 net24
*880 net25
*881 net26
*882 net27
*883 net28
*884 clknet_leaf_0_wclk
*885 clknet_leaf_1_wclk
*886 clknet_leaf_2_wclk
*887 clknet_leaf_3_wclk
*888 clknet_leaf_4_wclk
*889 clknet_leaf_5_wclk
*890 clknet_leaf_6_wclk
*891 clknet_leaf_7_wclk
*892 clknet_leaf_8_wclk
*893 clknet_leaf_9_wclk
*894 clknet_leaf_10_wclk
*895 clknet_0_wclk
*896 clknet_1_0__leaf_wclk
*897 clknet_1_1__leaf_wclk
*898 clknet_0_rclk
*899 clknet_2_0__leaf_rclk
*900 clknet_2_1__leaf_rclk
*901 clknet_2_2__leaf_rclk
*902 clknet_2_3__leaf_rclk
*903 net29
*904 net30
*905 net31
*906 net32
*907 ff_2_read/_08_
*908 ff_2_read/_09_
*909 ff_2_read/_10_
*910 ff_2_read/_11_
*911 ff_2_read/_12_
*912 ff_2_read/_13_
*913 ff_2_read/_14_
*914 ff_2_read/_15_
*915 ff_2_read/_16_
*916 ff_2_read/_17_
*917 ff_2_read/_18_
*918 ff_2_read/_19_
*919 ff_2_read/_20_
*920 ff_2_read/_21_
*921 ff_2_read/_22_
*922 ff_2_read/_23_
*923 ff_2_write/_08_
*924 ff_2_write/_09_
*925 ff_2_write/_10_
*926 ff_2_write/_11_
*927 ff_2_write/_12_
*928 ff_2_write/_13_
*929 ff_2_write/_14_
*930 ff_2_write/_15_
*931 ff_2_write/_16_
*932 ff_2_write/_17_
*933 ff_2_write/_18_
*934 ff_2_write/_19_
*935 ff_2_write/_20_
*936 ff_2_write/_21_
*937 ff_2_write/_22_
*938 ff_2_write/_23_
*939 memory/_0438_
*940 memory/_0439_
*941 memory/_0440_
*942 memory/_0441_
*943 memory/_0442_
*944 memory/_0443_
*945 memory/_0444_
*946 memory/_0445_
*947 memory/_0446_
*948 memory/_0447_
*949 memory/_0448_
*950 memory/_0449_
*951 memory/_0450_
*952 memory/_0451_
*953 memory/_0452_
*954 memory/_0453_
*955 memory/_0454_
*956 memory/_0455_
*957 memory/_0456_
*958 memory/_0457_
*959 memory/_0458_
*960 memory/_0459_
*961 memory/_0460_
*962 memory/_0461_
*963 memory/_0462_
*964 memory/_0463_
*965 memory/_0464_
*966 memory/_0465_
*967 memory/_0466_
*968 memory/_0467_
*969 memory/_0468_
*970 memory/_0469_
*971 memory/_0470_
*972 memory/_0471_
*973 memory/_0472_
*974 memory/_0473_
*975 memory/_0474_
*976 memory/_0475_
*977 memory/_0476_
*978 memory/_0477_
*979 memory/_0478_
*980 memory/_0479_
*981 memory/_0480_
*982 memory/_0481_
*983 memory/_0482_
*984 memory/_0483_
*985 memory/_0484_
*986 memory/_0485_
*987 memory/_0486_
*988 memory/_0487_
*989 memory/_0488_
*990 memory/_0489_
*991 memory/_0490_
*992 memory/_0491_
*993 memory/_0492_
*994 memory/_0493_
*995 memory/_0494_
*996 memory/_0495_
*997 memory/_0496_
*998 memory/_0497_
*999 memory/_0498_
*1000 memory/_0499_
*1001 memory/_0500_
*1002 memory/_0501_
*1003 memory/_0502_
*1004 memory/_0503_
*1005 memory/_0504_
*1006 memory/_0505_
*1007 memory/_0506_
*1008 memory/_0507_
*1009 memory/_0508_
*1010 memory/_0509_
*1011 memory/_0510_
*1012 memory/_0511_
*1013 memory/_0512_
*1014 memory/_0513_
*1015 memory/_0514_
*1016 memory/_0515_
*1017 memory/_0516_
*1018 memory/_0517_
*1019 memory/_0518_
*1020 memory/_0519_
*1021 memory/_0520_
*1022 memory/_0521_
*1023 memory/_0522_
*1024 memory/_0523_
*1025 memory/_0524_
*1026 memory/_0525_
*1027 memory/_0526_
*1028 memory/_0527_
*1029 memory/_0528_
*1030 memory/_0529_
*1031 memory/_0530_
*1032 memory/_0531_
*1033 memory/_0532_
*1034 memory/_0533_
*1035 memory/_0534_
*1036 memory/_0535_
*1037 memory/_0536_
*1038 memory/_0537_
*1039 memory/_0538_
*1040 memory/_0539_
*1041 memory/_0540_
*1042 memory/_0541_
*1043 memory/_0542_
*1044 memory/_0543_
*1045 memory/_0544_
*1046 memory/_0545_
*1047 memory/_0546_
*1048 memory/_0547_
*1049 memory/_0548_
*1050 memory/_0549_
*1051 memory/_0550_
*1052 memory/_0551_
*1053 memory/_0552_
*1054 memory/_0553_
*1055 memory/_0554_
*1056 memory/_0555_
*1057 memory/_0556_
*1058 memory/_0557_
*1059 memory/_0558_
*1060 memory/_0559_
*1061 memory/_0560_
*1062 memory/_0561_
*1063 memory/_0562_
*1064 memory/_0563_
*1065 memory/_0564_
*1066 memory/_0565_
*1067 memory/_0566_
*1068 memory/_0567_
*1069 memory/_0568_
*1070 memory/_0569_
*1071 memory/_0570_
*1072 memory/_0571_
*1073 memory/_0572_
*1074 memory/_0573_
*1075 memory/_0574_
*1076 memory/_0575_
*1077 memory/_0576_
*1078 memory/_0577_
*1079 memory/_0578_
*1080 memory/_0579_
*1081 memory/_0580_
*1082 memory/_0581_
*1083 memory/_0582_
*1084 memory/_0583_
*1085 memory/_0584_
*1086 memory/_0585_
*1087 memory/_0586_
*1088 memory/_0587_
*1089 memory/_0588_
*1090 memory/_0589_
*1091 memory/_0590_
*1092 memory/_0591_
*1093 memory/_0592_
*1094 memory/_0593_
*1095 memory/_0594_
*1096 memory/_0595_
*1097 memory/_0596_
*1098 memory/_0597_
*1099 memory/_0598_
*1100 memory/_0599_
*1101 memory/_0600_
*1102 memory/_0601_
*1103 memory/_0602_
*1104 memory/_0603_
*1105 memory/_0604_
*1106 memory/_0605_
*1107 memory/_0606_
*1108 memory/_0607_
*1109 memory/_0608_
*1110 memory/_0609_
*1111 memory/_0610_
*1112 memory/_0611_
*1113 memory/_0612_
*1114 memory/_0613_
*1115 memory/_0614_
*1116 memory/_0615_
*1117 memory/_0616_
*1118 memory/_0617_
*1119 memory/_0618_
*1120 memory/_0619_
*1121 memory/_0620_
*1122 memory/_0621_
*1123 memory/_0622_
*1124 memory/_0623_
*1125 memory/_0624_
*1126 memory/_0625_
*1127 memory/_0626_
*1128 memory/_0627_
*1129 memory/_0628_
*1130 memory/_0629_
*1131 memory/_0630_
*1132 memory/_0631_
*1133 memory/_0632_
*1134 memory/_0633_
*1135 memory/_0634_
*1136 memory/_0635_
*1137 memory/_0636_
*1138 memory/_0637_
*1139 memory/_0638_
*1140 memory/_0639_
*1141 memory/_0640_
*1142 memory/_0641_
*1143 memory/_0642_
*1144 memory/_0643_
*1145 memory/_0644_
*1146 memory/_0645_
*1147 memory/_0646_
*1148 memory/_0647_
*1149 memory/_0648_
*1150 memory/_0649_
*1151 memory/_0650_
*1152 memory/_0651_
*1153 memory/_0652_
*1154 memory/_0653_
*1155 memory/_0654_
*1156 memory/_0655_
*1157 memory/_0656_
*1158 memory/_0657_
*1159 memory/_0658_
*1160 memory/_0659_
*1161 memory/_0660_
*1162 memory/_0661_
*1163 memory/_0662_
*1164 memory/_0663_
*1165 memory/_0664_
*1166 memory/_0665_
*1167 memory/_0666_
*1168 memory/_0667_
*1169 memory/_0668_
*1170 memory/_0669_
*1171 memory/_0670_
*1172 memory/_0671_
*1173 memory/_0672_
*1174 memory/_0673_
*1175 memory/_0674_
*1176 memory/_0675_
*1177 memory/_0676_
*1178 memory/_0677_
*1179 memory/_0678_
*1180 memory/_0679_
*1181 memory/_0680_
*1182 memory/_0681_
*1183 memory/_0682_
*1184 memory/_0683_
*1185 memory/_0684_
*1186 memory/_0685_
*1187 memory/_0686_
*1188 memory/_0687_
*1189 memory/_0688_
*1190 memory/_0689_
*1191 memory/_0690_
*1192 memory/_0691_
*1193 memory/_0692_
*1194 memory/_0693_
*1195 memory/_0694_
*1196 memory/_0695_
*1197 memory/_0696_
*1198 memory/_0697_
*1199 memory/_0698_
*1200 memory/_0699_
*1201 memory/_0700_
*1202 memory/_0701_
*1203 memory/_0702_
*1204 memory/_0703_
*1205 memory/_0704_
*1206 memory/_0705_
*1207 memory/_0706_
*1208 memory/_0707_
*1209 memory/_0708_
*1210 memory/_0709_
*1211 memory/_0710_
*1212 memory/_0711_
*1213 memory/_0712_
*1214 memory/_0713_
*1215 memory/_0714_
*1216 memory/_0715_
*1217 memory/_0716_
*1218 memory/_0717_
*1219 memory/_0718_
*1220 memory/_0719_
*1221 memory/_0720_
*1222 memory/_0721_
*1223 memory/_0722_
*1224 memory/_0723_
*1225 memory/_0724_
*1226 memory/_0725_
*1227 memory/_0726_
*1228 memory/_0727_
*1229 memory/_0728_
*1230 memory/_0729_
*1231 memory/_0730_
*1232 memory/_0731_
*1233 memory/_0732_
*1234 memory/_0733_
*1235 memory/_0734_
*1236 memory/_0735_
*1237 memory/_0736_
*1238 memory/_0737_
*1239 memory/_0738_
*1240 memory/_0739_
*1241 memory/_0740_
*1242 memory/_0741_
*1243 memory/_0742_
*1244 memory/_0743_
*1245 memory/_0744_
*1246 memory/_0745_
*1247 memory/_0746_
*1248 memory/_0747_
*1249 memory/_0748_
*1250 memory/_0749_
*1251 memory/_0750_
*1252 memory/_0751_
*1253 memory/_0752_
*1254 memory/_0753_
*1255 memory/_0754_
*1256 memory/_0755_
*1257 memory/_0756_
*1258 memory/_0757_
*1259 memory/_0758_
*1260 memory/_0759_
*1261 memory/_0760_
*1262 memory/_0761_
*1263 memory/_0762_
*1264 memory/_0763_
*1265 memory/_0764_
*1266 memory/_0765_
*1267 memory/_0766_
*1268 memory/_0767_
*1269 memory/_0768_
*1270 memory/_0769_
*1271 memory/_0770_
*1272 memory/_0771_
*1273 memory/_0772_
*1274 memory/_0773_
*1275 memory/_0774_
*1276 memory/_0775_
*1277 memory/_0776_
*1278 memory/_0777_
*1279 memory/_0778_
*1280 memory/_0779_
*1281 memory/_0780_
*1282 memory/_0781_
*1283 memory/_0782_
*1284 memory/_0783_
*1285 memory/_0784_
*1286 memory/_0785_
*1287 memory/_0786_
*1288 memory/_0787_
*1289 memory/_0788_
*1290 memory/_0789_
*1291 memory/_0790_
*1292 memory/_0791_
*1293 memory/_0792_
*1294 memory/_0793_
*1295 memory/_0794_
*1296 memory/_0795_
*1297 memory/_0796_
*1298 memory/_0797_
*1299 memory/_0798_
*1300 memory/_0799_
*1301 memory/_0800_
*1302 memory/_0801_
*1303 memory/_0802_
*1304 memory/_0803_
*1305 memory/_0804_
*1306 memory/_0805_
*1307 memory/_0806_
*1308 memory/_0807_
*1309 memory/_0808_
*1310 memory/_0809_
*1311 memory/_0810_
*1312 memory/_0811_
*1313 memory/_0812_
*1314 memory/_0813_
*1315 memory/_0814_
*1316 memory/_0815_
*1317 memory/_0816_
*1318 memory/_0817_
*1319 memory/_0818_
*1320 memory/_0819_
*1321 memory/_0820_
*1322 memory/_0821_
*1323 memory/_0822_
*1324 memory/_0823_
*1325 memory/_0824_
*1326 memory/_0825_
*1327 memory/_0826_
*1328 memory/_0827_
*1329 memory/_0828_
*1330 memory/_0829_
*1331 memory/_0830_
*1332 memory/_0831_
*1333 memory/_0832_
*1334 memory/_0833_
*1335 memory/_0834_
*1336 memory/_0835_
*1337 memory/_0836_
*1338 memory/_0837_
*1339 memory/_0838_
*1340 memory/_0839_
*1341 memory/_0840_
*1342 memory/_0841_
*1343 memory/_0842_
*1344 memory/_0843_
*1345 memory/_0844_
*1346 memory/_0845_
*1347 memory/_0846_
*1348 memory/_0847_
*1349 memory/_0848_
*1350 memory/_0849_
*1351 memory/_0850_
*1352 memory/_0851_
*1353 memory/_0852_
*1354 memory/_0853_
*1355 memory/_0854_
*1356 memory/_0855_
*1357 memory/_0856_
*1358 memory/_0857_
*1359 memory/_0858_
*1360 memory/_0859_
*1361 memory/_0860_
*1362 memory/_0861_
*1363 memory/_0862_
*1364 memory/_0863_
*1365 memory/_0864_
*1366 memory/_0865_
*1367 memory/_0866_
*1368 memory/_0867_
*1369 memory/_0868_
*1370 memory/_0869_
*1371 memory/_0870_
*1372 memory/_0871_
*1373 memory/_0872_
*1374 memory/_0873_
*1375 memory/_0874_
*1376 memory/_0875_
*1377 memory/_0876_
*1378 memory/_0877_
*1379 memory/_0878_
*1380 memory/_0879_
*1381 memory/_0880_
*1382 memory/_0881_
*1383 memory/_0882_
*1384 memory/_0883_
*1385 memory/_0884_
*1386 memory/_0885_
*1387 memory/_0886_
*1388 memory/_0887_
*1389 memory/_0888_
*1390 memory/_0889_
*1391 memory/_0890_
*1392 memory/_0891_
*1393 memory/_0892_
*1394 memory/_0893_
*1395 memory/_0894_
*1396 memory/_0895_
*1397 memory/_0896_
*1398 memory/_0897_
*1399 memory/_0898_
*1400 memory/_0899_
*1401 memory/_0900_
*1402 memory/_0901_
*1403 memory/_0902_
*1404 memory/_0903_
*1405 memory/_0904_
*1406 memory/_0905_
*1407 memory/_0906_
*1408 memory/_0907_
*1409 memory/_0908_
*1410 memory/_0909_
*1411 memory/_0910_
*1412 memory/_0911_
*1413 memory/_0912_
*1414 memory/_0913_
*1415 memory/_0914_
*1416 memory/_0915_
*1417 memory/_0916_
*1418 memory/_0917_
*1419 memory/_0918_
*1420 memory/_0919_
*1421 memory/_0920_
*1422 memory/_0921_
*1423 memory/_0922_
*1424 memory/_0923_
*1425 memory/_0924_
*1426 memory/_0925_
*1427 memory/_0926_
*1428 memory/_0927_
*1429 memory/_0928_
*1430 memory/_0929_
*1431 memory/_0930_
*1432 memory/_0931_
*1433 memory/_0932_
*1434 memory/_0933_
*1435 memory/_0934_
*1436 memory/_0935_
*1437 memory/_0936_
*1438 memory/_0937_
*1439 memory/_0938_
*1440 memory/_0939_
*1441 memory/_0940_
*1442 memory/_0941_
*1443 memory/_0942_
*1444 memory/_0943_
*1445 memory/_0944_
*1446 memory/_0945_
*1447 memory/_0946_
*1448 memory/_0947_
*1449 memory/_0948_
*1450 memory/_0949_
*1451 memory/_0950_
*1452 memory/_0951_
*1453 memory/_0952_
*1454 memory/_0953_
*1455 memory/_0954_
*1456 memory/_0955_
*1457 memory/_0956_
*1458 memory/_0957_
*1459 memory/_0958_
*1460 memory/_0959_
*1461 memory/_0960_
*1462 memory/_0961_
*1463 memory/_0962_
*1464 memory/_0963_
*1465 memory/_0964_
*1466 memory/_0965_
*1467 memory/_0966_
*1468 memory/_0967_
*1469 memory/_0968_
*1470 memory/_0969_
*1471 memory/_0970_
*1472 memory/_0971_
*1473 memory/_0972_
*1474 memory/_0973_
*1475 memory/_0974_
*1476 memory/_0975_
*1477 memory/_0976_
*1478 memory/_0977_
*1479 memory/_0978_
*1480 memory/_0979_
*1481 memory/_0980_
*1482 memory/_0981_
*1483 memory/_0982_
*1484 memory/_0983_
*1485 memory/_0984_
*1486 memory/_0985_
*1487 memory/_0986_
*1488 memory/_0987_
*1489 memory/_0988_
*1490 memory/_0989_
*1491 memory/_0990_
*1492 memory/_0991_
*1493 memory/_0992_
*1494 memory/_0993_
*1495 memory/_0994_
*1496 memory/_0995_
*1497 memory/_0996_
*1498 memory/_0997_
*1499 memory/_0998_
*1500 memory/_0999_
*1501 memory/_1000_
*1502 memory/_1001_
*1503 memory/_1002_
*1504 memory/_1003_
*1505 memory/_1004_
*1506 memory/_1005_
*1507 memory/_1006_
*1508 memory/_1007_
*1509 memory/_1008_
*1510 memory/_1009_
*1511 memory/_1010_
*1512 memory/_1011_
*1513 memory/_1012_
*1514 memory/_1013_
*1515 memory/_1014_
*1516 memory/_1015_
*1517 memory/_1016_
*1518 memory/_1017_
*1519 memory/_1018_
*1520 memory/_1019_
*1521 memory/_1020_
*1522 memory/_1021_
*1523 memory/_1022_
*1524 memory/_1023_
*1525 memory/_1024_
*1526 memory/_1025_
*1527 memory/_1026_
*1528 memory/_1027_
*1529 memory/_1028_
*1530 memory/_1029_
*1531 memory/_1030_
*1532 memory/_1031_
*1533 memory/_1032_
*1534 memory/_1033_
*1535 memory/_1034_
*1536 memory/_1035_
*1537 memory/_1036_
*1538 memory/_1037_
*1539 memory/_1038_
*1540 memory/_1039_
*1541 memory/_1040_
*1542 memory/_1041_
*1543 memory/_1042_
*1544 memory/_1043_
*1545 memory/_1044_
*1546 memory/_1045_
*1547 memory/_1046_
*1548 memory/_1047_
*1549 memory/_1048_
*1550 memory/_1049_
*1551 memory/_1050_
*1552 memory/_1051_
*1553 memory/_1052_
*1554 memory/_1053_
*1555 memory/_1054_
*1556 memory/_1055_
*1557 memory/_1056_
*1558 memory/_1057_
*1559 memory/_1058_
*1560 memory/_1059_
*1561 memory/_1060_
*1562 memory/_1061_
*1563 memory/_1062_
*1564 memory/_1063_
*1565 memory/_1064_
*1566 memory/_1065_
*1567 memory/_1066_
*1568 memory/_1067_
*1569 memory/_1068_
*1570 memory/_1069_
*1571 memory/_1070_
*1572 memory/_1071_
*1573 memory/_1072_
*1574 memory/_1073_
*1575 memory/_1074_
*1576 memory/_1075_
*1577 memory/_1076_
*1578 memory/_1077_
*1579 memory/_1078_
*1580 memory/_1079_
*1581 memory/_1080_
*1582 memory/_1081_
*1583 memory/_1082_
*1584 memory/_1083_
*1585 memory/_1084_
*1586 memory/_1085_
*1587 memory/_1086_
*1588 memory/_1087_
*1589 memory/_1088_
*1590 memory/_1089_
*1591 memory/_1090_
*1592 memory/_1091_
*1593 memory/_1092_
*1594 memory/_1093_
*1595 memory/_1094_
*1596 memory/_1095_
*1597 memory/_1096_
*1598 memory/_1097_
*1599 memory/_1098_
*1600 memory/_1099_
*1601 memory/_1100_
*1602 memory/_1101_
*1603 memory/_1102_
*1604 memory/_1103_
*1605 memory/_1104_
*1606 memory/_1105_
*1607 memory/_1106_
*1608 memory/_1107_
*1609 memory/_1108_
*1610 memory/_1109_
*1611 memory/_1110_
*1612 memory/_1111_
*1613 memory/_1112_
*1614 memory/_1113_
*1615 memory/_1114_
*1616 memory/_1115_
*1617 memory/_1116_
*1618 memory/_1117_
*1619 memory/_1118_
*1620 memory/_1119_
*1621 memory/_1120_
*1622 memory/_1121_
*1623 memory/_1122_
*1624 memory/_1123_
*1625 memory/_1124_
*1626 memory/_1125_
*1627 memory/_1126_
*1628 memory/_1127_
*1629 memory/_1128_
*1630 memory/_1129_
*1631 memory/_1130_
*1632 memory/_1131_
*1633 memory/_1132_
*1634 memory/_1133_
*1635 memory/_1134_
*1636 memory/_1135_
*1637 memory/_1136_
*1638 memory/_1137_
*1639 memory/_1138_
*1640 memory/_1139_
*1641 memory/_1140_
*1642 memory/_1141_
*1643 memory/_1142_
*1644 memory/_1143_
*1645 memory/_1144_
*1646 memory/_1145_
*1647 memory/_1146_
*1648 memory/_1147_
*1649 memory/_1148_
*1650 memory/_1149_
*1651 memory/_1150_
*1652 memory/_1151_
*1653 memory/_1152_
*1654 memory/_1153_
*1655 memory/_1154_
*1656 memory/_1155_
*1657 memory/_1156_
*1658 memory/_1157_
*1659 memory/_1158_
*1660 memory/_1159_
*1661 memory/_1160_
*1662 memory/_1161_
*1663 memory/_1162_
*1664 memory/_1163_
*1665 read_pointer/_20_
*1666 read_pointer/_21_
*1667 read_pointer/_22_
*1668 read_pointer/_23_
*1669 read_pointer/_24_
*1670 read_pointer/_25_
*1671 read_pointer/_26_
*1672 read_pointer/_27_
*1673 read_pointer/_28_
*1674 read_pointer/_29_
*1675 read_pointer/_30_
*1676 read_pointer/_31_
*1677 read_pointer/_32_
*1678 read_pointer/_33_
*1679 read_pointer/_34_
*1680 read_pointer/_35_
*1681 read_pointer/_36_
*1682 read_pointer/_37_
*1683 read_pointer/_38_
*1684 read_pointer/_39_
*1685 read_pointer/_40_
*1686 read_pointer/_41_
*1687 read_pointer/_42_
*1688 read_pointer/_43_
*1689 read_pointer/_44_
*1690 read_pointer/_45_
*1691 read_pointer/_46_
*1692 read_pointer/_47_
*1693 write_pointer/_19_
*1694 write_pointer/_20_
*1695 write_pointer/_21_
*1696 write_pointer/_22_
*1697 write_pointer/_23_
*1698 write_pointer/_24_
*1699 write_pointer/_25_
*1700 write_pointer/_26_
*1701 write_pointer/_27_
*1702 write_pointer/_28_
*1703 write_pointer/_29_
*1704 write_pointer/_30_
*1705 write_pointer/_31_
*1706 write_pointer/_32_
*1707 write_pointer/_33_
*1708 write_pointer/_34_
*1709 write_pointer/_35_
*1710 write_pointer/_36_
*1711 write_pointer/_37_
*1712 write_pointer/_38_
*1713 write_pointer/_39_
*1714 write_pointer/_40_
*1715 write_pointer/_41_
*1716 write_pointer/_42_
*1717 write_pointer/_43_
*1718 write_pointer/_44_
*1719 write_pointer/_45_
*1720 PHY_EDGE_ROW_0_Right_0
*1721 PHY_EDGE_ROW_1_Right_1
*1722 PHY_EDGE_ROW_2_Right_2
*1723 PHY_EDGE_ROW_3_Right_3
*1724 PHY_EDGE_ROW_4_Right_4
*1725 PHY_EDGE_ROW_5_Right_5
*1726 PHY_EDGE_ROW_6_Right_6
*1727 PHY_EDGE_ROW_7_Right_7
*1728 PHY_EDGE_ROW_8_Right_8
*1729 PHY_EDGE_ROW_9_Right_9
*1730 PHY_EDGE_ROW_10_Right_10
*1731 PHY_EDGE_ROW_11_Right_11
*1732 PHY_EDGE_ROW_12_Right_12
*1733 PHY_EDGE_ROW_13_Right_13
*1734 PHY_EDGE_ROW_14_Right_14
*1735 PHY_EDGE_ROW_15_Right_15
*1736 PHY_EDGE_ROW_16_Right_16
*1737 PHY_EDGE_ROW_17_Right_17
*1738 PHY_EDGE_ROW_18_Right_18
*1739 PHY_EDGE_ROW_19_Right_19
*1740 PHY_EDGE_ROW_20_Right_20
*1741 PHY_EDGE_ROW_21_Right_21
*1742 PHY_EDGE_ROW_22_Right_22
*1743 PHY_EDGE_ROW_23_Right_23
*1744 PHY_EDGE_ROW_24_Right_24
*1745 PHY_EDGE_ROW_25_Right_25
*1746 PHY_EDGE_ROW_26_Right_26
*1747 PHY_EDGE_ROW_27_Right_27
*1748 PHY_EDGE_ROW_28_Right_28
*1749 PHY_EDGE_ROW_29_Right_29
*1750 PHY_EDGE_ROW_30_Right_30
*1751 PHY_EDGE_ROW_31_Right_31
*1752 PHY_EDGE_ROW_32_Right_32
*1753 PHY_EDGE_ROW_33_Right_33
*1754 PHY_EDGE_ROW_34_Right_34
*1755 PHY_EDGE_ROW_35_Right_35
*1756 PHY_EDGE_ROW_36_Right_36
*1757 PHY_EDGE_ROW_37_Right_37
*1758 PHY_EDGE_ROW_38_Right_38
*1759 PHY_EDGE_ROW_39_Right_39
*1760 PHY_EDGE_ROW_40_Right_40
*1761 PHY_EDGE_ROW_41_Right_41
*1762 PHY_EDGE_ROW_42_Right_42
*1763 PHY_EDGE_ROW_43_Right_43
*1764 PHY_EDGE_ROW_44_Right_44
*1765 PHY_EDGE_ROW_45_Right_45
*1766 PHY_EDGE_ROW_46_Right_46
*1767 PHY_EDGE_ROW_47_Right_47
*1768 PHY_EDGE_ROW_48_Right_48
*1769 PHY_EDGE_ROW_49_Right_49
*1770 PHY_EDGE_ROW_50_Right_50
*1771 PHY_EDGE_ROW_51_Right_51
*1772 PHY_EDGE_ROW_52_Right_52
*1773 PHY_EDGE_ROW_53_Right_53
*1774 PHY_EDGE_ROW_54_Right_54
*1775 PHY_EDGE_ROW_55_Right_55
*1776 PHY_EDGE_ROW_56_Right_56
*1777 PHY_EDGE_ROW_57_Right_57
*1778 PHY_EDGE_ROW_58_Right_58
*1779 PHY_EDGE_ROW_59_Right_59
*1780 PHY_EDGE_ROW_60_Right_60
*1781 PHY_EDGE_ROW_61_Right_61
*1782 PHY_EDGE_ROW_62_Right_62
*1783 PHY_EDGE_ROW_63_Right_63
*1784 PHY_EDGE_ROW_64_Right_64
*1785 PHY_EDGE_ROW_65_Right_65
*1786 PHY_EDGE_ROW_0_Left_66
*1787 PHY_EDGE_ROW_1_Left_67
*1788 PHY_EDGE_ROW_2_Left_68
*1789 PHY_EDGE_ROW_3_Left_69
*1790 PHY_EDGE_ROW_4_Left_70
*1791 PHY_EDGE_ROW_5_Left_71
*1792 PHY_EDGE_ROW_6_Left_72
*1793 PHY_EDGE_ROW_7_Left_73
*1794 PHY_EDGE_ROW_8_Left_74
*1795 PHY_EDGE_ROW_9_Left_75
*1796 PHY_EDGE_ROW_10_Left_76
*1797 PHY_EDGE_ROW_11_Left_77
*1798 PHY_EDGE_ROW_12_Left_78
*1799 PHY_EDGE_ROW_13_Left_79
*1800 PHY_EDGE_ROW_14_Left_80
*1801 PHY_EDGE_ROW_15_Left_81
*1802 PHY_EDGE_ROW_16_Left_82
*1803 PHY_EDGE_ROW_17_Left_83
*1804 PHY_EDGE_ROW_18_Left_84
*1805 PHY_EDGE_ROW_19_Left_85
*1806 PHY_EDGE_ROW_20_Left_86
*1807 PHY_EDGE_ROW_21_Left_87
*1808 PHY_EDGE_ROW_22_Left_88
*1809 PHY_EDGE_ROW_23_Left_89
*1810 PHY_EDGE_ROW_24_Left_90
*1811 PHY_EDGE_ROW_25_Left_91
*1812 PHY_EDGE_ROW_26_Left_92
*1813 PHY_EDGE_ROW_27_Left_93
*1814 PHY_EDGE_ROW_28_Left_94
*1815 PHY_EDGE_ROW_29_Left_95
*1816 PHY_EDGE_ROW_30_Left_96
*1817 PHY_EDGE_ROW_31_Left_97
*1818 PHY_EDGE_ROW_32_Left_98
*1819 PHY_EDGE_ROW_33_Left_99
*1820 PHY_EDGE_ROW_34_Left_100
*1821 PHY_EDGE_ROW_35_Left_101
*1822 PHY_EDGE_ROW_36_Left_102
*1823 PHY_EDGE_ROW_37_Left_103
*1824 PHY_EDGE_ROW_38_Left_104
*1825 PHY_EDGE_ROW_39_Left_105
*1826 PHY_EDGE_ROW_40_Left_106
*1827 PHY_EDGE_ROW_41_Left_107
*1828 PHY_EDGE_ROW_42_Left_108
*1829 PHY_EDGE_ROW_43_Left_109
*1830 PHY_EDGE_ROW_44_Left_110
*1831 PHY_EDGE_ROW_45_Left_111
*1832 PHY_EDGE_ROW_46_Left_112
*1833 PHY_EDGE_ROW_47_Left_113
*1834 PHY_EDGE_ROW_48_Left_114
*1835 PHY_EDGE_ROW_49_Left_115
*1836 PHY_EDGE_ROW_50_Left_116
*1837 PHY_EDGE_ROW_51_Left_117
*1838 PHY_EDGE_ROW_52_Left_118
*1839 PHY_EDGE_ROW_53_Left_119
*1840 PHY_EDGE_ROW_54_Left_120
*1841 PHY_EDGE_ROW_55_Left_121
*1842 PHY_EDGE_ROW_56_Left_122
*1843 PHY_EDGE_ROW_57_Left_123
*1844 PHY_EDGE_ROW_58_Left_124
*1845 PHY_EDGE_ROW_59_Left_125
*1846 PHY_EDGE_ROW_60_Left_126
*1847 PHY_EDGE_ROW_61_Left_127
*1848 PHY_EDGE_ROW_62_Left_128
*1849 PHY_EDGE_ROW_63_Left_129
*1850 PHY_EDGE_ROW_64_Left_130
*1851 PHY_EDGE_ROW_65_Left_131
*1852 TAP_TAPCELL_ROW_0_132
*1853 TAP_TAPCELL_ROW_0_133
*1854 TAP_TAPCELL_ROW_0_134
*1855 TAP_TAPCELL_ROW_0_135
*1856 TAP_TAPCELL_ROW_0_136
*1857 TAP_TAPCELL_ROW_0_137
*1858 TAP_TAPCELL_ROW_0_138
*1859 TAP_TAPCELL_ROW_0_139
*1860 TAP_TAPCELL_ROW_0_140
*1861 TAP_TAPCELL_ROW_0_141
*1862 TAP_TAPCELL_ROW_0_142
*1863 TAP_TAPCELL_ROW_0_143
*1864 TAP_TAPCELL_ROW_1_144
*1865 TAP_TAPCELL_ROW_1_145
*1866 TAP_TAPCELL_ROW_1_146
*1867 TAP_TAPCELL_ROW_1_147
*1868 TAP_TAPCELL_ROW_1_148
*1869 TAP_TAPCELL_ROW_1_149
*1870 TAP_TAPCELL_ROW_2_150
*1871 TAP_TAPCELL_ROW_2_151
*1872 TAP_TAPCELL_ROW_2_152
*1873 TAP_TAPCELL_ROW_2_153
*1874 TAP_TAPCELL_ROW_2_154
*1875 TAP_TAPCELL_ROW_2_155
*1876 TAP_TAPCELL_ROW_3_156
*1877 TAP_TAPCELL_ROW_3_157
*1878 TAP_TAPCELL_ROW_3_158
*1879 TAP_TAPCELL_ROW_3_159
*1880 TAP_TAPCELL_ROW_3_160
*1881 TAP_TAPCELL_ROW_3_161
*1882 TAP_TAPCELL_ROW_4_162
*1883 TAP_TAPCELL_ROW_4_163
*1884 TAP_TAPCELL_ROW_4_164
*1885 TAP_TAPCELL_ROW_4_165
*1886 TAP_TAPCELL_ROW_4_166
*1887 TAP_TAPCELL_ROW_4_167
*1888 TAP_TAPCELL_ROW_5_168
*1889 TAP_TAPCELL_ROW_5_169
*1890 TAP_TAPCELL_ROW_5_170
*1891 TAP_TAPCELL_ROW_5_171
*1892 TAP_TAPCELL_ROW_5_172
*1893 TAP_TAPCELL_ROW_5_173
*1894 TAP_TAPCELL_ROW_6_174
*1895 TAP_TAPCELL_ROW_6_175
*1896 TAP_TAPCELL_ROW_6_176
*1897 TAP_TAPCELL_ROW_6_177
*1898 TAP_TAPCELL_ROW_6_178
*1899 TAP_TAPCELL_ROW_6_179
*1900 TAP_TAPCELL_ROW_7_180
*1901 TAP_TAPCELL_ROW_7_181
*1902 TAP_TAPCELL_ROW_7_182
*1903 TAP_TAPCELL_ROW_7_183
*1904 TAP_TAPCELL_ROW_7_184
*1905 TAP_TAPCELL_ROW_7_185
*1906 TAP_TAPCELL_ROW_8_186
*1907 TAP_TAPCELL_ROW_8_187
*1908 TAP_TAPCELL_ROW_8_188
*1909 TAP_TAPCELL_ROW_8_189
*1910 TAP_TAPCELL_ROW_8_190
*1911 TAP_TAPCELL_ROW_8_191
*1912 TAP_TAPCELL_ROW_9_192
*1913 TAP_TAPCELL_ROW_9_193
*1914 TAP_TAPCELL_ROW_9_194
*1915 TAP_TAPCELL_ROW_9_195
*1916 TAP_TAPCELL_ROW_9_196
*1917 TAP_TAPCELL_ROW_9_197
*1918 TAP_TAPCELL_ROW_10_198
*1919 TAP_TAPCELL_ROW_10_199
*1920 TAP_TAPCELL_ROW_10_200
*1921 TAP_TAPCELL_ROW_10_201
*1922 TAP_TAPCELL_ROW_10_202
*1923 TAP_TAPCELL_ROW_10_203
*1924 TAP_TAPCELL_ROW_11_204
*1925 TAP_TAPCELL_ROW_11_205
*1926 TAP_TAPCELL_ROW_11_206
*1927 TAP_TAPCELL_ROW_11_207
*1928 TAP_TAPCELL_ROW_11_208
*1929 TAP_TAPCELL_ROW_11_209
*1930 TAP_TAPCELL_ROW_12_210
*1931 TAP_TAPCELL_ROW_12_211
*1932 TAP_TAPCELL_ROW_12_212
*1933 TAP_TAPCELL_ROW_12_213
*1934 TAP_TAPCELL_ROW_12_214
*1935 TAP_TAPCELL_ROW_12_215
*1936 TAP_TAPCELL_ROW_13_216
*1937 TAP_TAPCELL_ROW_13_217
*1938 TAP_TAPCELL_ROW_13_218
*1939 TAP_TAPCELL_ROW_13_219
*1940 TAP_TAPCELL_ROW_13_220
*1941 TAP_TAPCELL_ROW_13_221
*1942 TAP_TAPCELL_ROW_14_222
*1943 TAP_TAPCELL_ROW_14_223
*1944 TAP_TAPCELL_ROW_14_224
*1945 TAP_TAPCELL_ROW_14_225
*1946 TAP_TAPCELL_ROW_14_226
*1947 TAP_TAPCELL_ROW_14_227
*1948 TAP_TAPCELL_ROW_15_228
*1949 TAP_TAPCELL_ROW_15_229
*1950 TAP_TAPCELL_ROW_15_230
*1951 TAP_TAPCELL_ROW_15_231
*1952 TAP_TAPCELL_ROW_15_232
*1953 TAP_TAPCELL_ROW_15_233
*1954 TAP_TAPCELL_ROW_16_234
*1955 TAP_TAPCELL_ROW_16_235
*1956 TAP_TAPCELL_ROW_16_236
*1957 TAP_TAPCELL_ROW_16_237
*1958 TAP_TAPCELL_ROW_16_238
*1959 TAP_TAPCELL_ROW_16_239
*1960 TAP_TAPCELL_ROW_17_240
*1961 TAP_TAPCELL_ROW_17_241
*1962 TAP_TAPCELL_ROW_17_242
*1963 TAP_TAPCELL_ROW_17_243
*1964 TAP_TAPCELL_ROW_17_244
*1965 TAP_TAPCELL_ROW_17_245
*1966 TAP_TAPCELL_ROW_18_246
*1967 TAP_TAPCELL_ROW_18_247
*1968 TAP_TAPCELL_ROW_18_248
*1969 TAP_TAPCELL_ROW_18_249
*1970 TAP_TAPCELL_ROW_18_250
*1971 TAP_TAPCELL_ROW_18_251
*1972 TAP_TAPCELL_ROW_19_252
*1973 TAP_TAPCELL_ROW_19_253
*1974 TAP_TAPCELL_ROW_19_254
*1975 TAP_TAPCELL_ROW_19_255
*1976 TAP_TAPCELL_ROW_19_256
*1977 TAP_TAPCELL_ROW_19_257
*1978 TAP_TAPCELL_ROW_20_258
*1979 TAP_TAPCELL_ROW_20_259
*1980 TAP_TAPCELL_ROW_20_260
*1981 TAP_TAPCELL_ROW_20_261
*1982 TAP_TAPCELL_ROW_20_262
*1983 TAP_TAPCELL_ROW_20_263
*1984 TAP_TAPCELL_ROW_21_264
*1985 TAP_TAPCELL_ROW_21_265
*1986 TAP_TAPCELL_ROW_21_266
*1987 TAP_TAPCELL_ROW_21_267
*1988 TAP_TAPCELL_ROW_21_268
*1989 TAP_TAPCELL_ROW_21_269
*1990 TAP_TAPCELL_ROW_22_270
*1991 TAP_TAPCELL_ROW_22_271
*1992 TAP_TAPCELL_ROW_22_272
*1993 TAP_TAPCELL_ROW_22_273
*1994 TAP_TAPCELL_ROW_22_274
*1995 TAP_TAPCELL_ROW_22_275
*1996 TAP_TAPCELL_ROW_23_276
*1997 TAP_TAPCELL_ROW_23_277
*1998 TAP_TAPCELL_ROW_23_278
*1999 TAP_TAPCELL_ROW_23_279
*2000 TAP_TAPCELL_ROW_23_280
*2001 TAP_TAPCELL_ROW_23_281
*2002 TAP_TAPCELL_ROW_24_282
*2003 TAP_TAPCELL_ROW_24_283
*2004 TAP_TAPCELL_ROW_24_284
*2005 TAP_TAPCELL_ROW_24_285
*2006 TAP_TAPCELL_ROW_24_286
*2007 TAP_TAPCELL_ROW_24_287
*2008 TAP_TAPCELL_ROW_25_288
*2009 TAP_TAPCELL_ROW_25_289
*2010 TAP_TAPCELL_ROW_25_290
*2011 TAP_TAPCELL_ROW_25_291
*2012 TAP_TAPCELL_ROW_25_292
*2013 TAP_TAPCELL_ROW_25_293
*2014 TAP_TAPCELL_ROW_26_294
*2015 TAP_TAPCELL_ROW_26_295
*2016 TAP_TAPCELL_ROW_26_296
*2017 TAP_TAPCELL_ROW_26_297
*2018 TAP_TAPCELL_ROW_26_298
*2019 TAP_TAPCELL_ROW_26_299
*2020 TAP_TAPCELL_ROW_27_300
*2021 TAP_TAPCELL_ROW_27_301
*2022 TAP_TAPCELL_ROW_27_302
*2023 TAP_TAPCELL_ROW_27_303
*2024 TAP_TAPCELL_ROW_27_304
*2025 TAP_TAPCELL_ROW_27_305
*2026 TAP_TAPCELL_ROW_28_306
*2027 TAP_TAPCELL_ROW_28_307
*2028 TAP_TAPCELL_ROW_28_308
*2029 TAP_TAPCELL_ROW_28_309
*2030 TAP_TAPCELL_ROW_28_310
*2031 TAP_TAPCELL_ROW_28_311
*2032 TAP_TAPCELL_ROW_29_312
*2033 TAP_TAPCELL_ROW_29_313
*2034 TAP_TAPCELL_ROW_29_314
*2035 TAP_TAPCELL_ROW_29_315
*2036 TAP_TAPCELL_ROW_29_316
*2037 TAP_TAPCELL_ROW_29_317
*2038 TAP_TAPCELL_ROW_30_318
*2039 TAP_TAPCELL_ROW_30_319
*2040 TAP_TAPCELL_ROW_30_320
*2041 TAP_TAPCELL_ROW_30_321
*2042 TAP_TAPCELL_ROW_30_322
*2043 TAP_TAPCELL_ROW_30_323
*2044 TAP_TAPCELL_ROW_31_324
*2045 TAP_TAPCELL_ROW_31_325
*2046 TAP_TAPCELL_ROW_31_326
*2047 TAP_TAPCELL_ROW_31_327
*2048 TAP_TAPCELL_ROW_31_328
*2049 TAP_TAPCELL_ROW_31_329
*2050 TAP_TAPCELL_ROW_32_330
*2051 TAP_TAPCELL_ROW_32_331
*2052 TAP_TAPCELL_ROW_32_332
*2053 TAP_TAPCELL_ROW_32_333
*2054 TAP_TAPCELL_ROW_32_334
*2055 TAP_TAPCELL_ROW_32_335
*2056 TAP_TAPCELL_ROW_33_336
*2057 TAP_TAPCELL_ROW_33_337
*2058 TAP_TAPCELL_ROW_33_338
*2059 TAP_TAPCELL_ROW_33_339
*2060 TAP_TAPCELL_ROW_33_340
*2061 TAP_TAPCELL_ROW_33_341
*2062 TAP_TAPCELL_ROW_34_342
*2063 TAP_TAPCELL_ROW_34_343
*2064 TAP_TAPCELL_ROW_34_344
*2065 TAP_TAPCELL_ROW_34_345
*2066 TAP_TAPCELL_ROW_34_346
*2067 TAP_TAPCELL_ROW_34_347
*2068 TAP_TAPCELL_ROW_35_348
*2069 TAP_TAPCELL_ROW_35_349
*2070 TAP_TAPCELL_ROW_35_350
*2071 TAP_TAPCELL_ROW_35_351
*2072 TAP_TAPCELL_ROW_35_352
*2073 TAP_TAPCELL_ROW_35_353
*2074 TAP_TAPCELL_ROW_36_354
*2075 TAP_TAPCELL_ROW_36_355
*2076 TAP_TAPCELL_ROW_36_356
*2077 TAP_TAPCELL_ROW_36_357
*2078 TAP_TAPCELL_ROW_36_358
*2079 TAP_TAPCELL_ROW_36_359
*2080 TAP_TAPCELL_ROW_37_360
*2081 TAP_TAPCELL_ROW_37_361
*2082 TAP_TAPCELL_ROW_37_362
*2083 TAP_TAPCELL_ROW_37_363
*2084 TAP_TAPCELL_ROW_37_364
*2085 TAP_TAPCELL_ROW_37_365
*2086 TAP_TAPCELL_ROW_38_366
*2087 TAP_TAPCELL_ROW_38_367
*2088 TAP_TAPCELL_ROW_38_368
*2089 TAP_TAPCELL_ROW_38_369
*2090 TAP_TAPCELL_ROW_38_370
*2091 TAP_TAPCELL_ROW_38_371
*2092 TAP_TAPCELL_ROW_39_372
*2093 TAP_TAPCELL_ROW_39_373
*2094 TAP_TAPCELL_ROW_39_374
*2095 TAP_TAPCELL_ROW_39_375
*2096 TAP_TAPCELL_ROW_39_376
*2097 TAP_TAPCELL_ROW_39_377
*2098 TAP_TAPCELL_ROW_40_378
*2099 TAP_TAPCELL_ROW_40_379
*2100 TAP_TAPCELL_ROW_40_380
*2101 TAP_TAPCELL_ROW_40_381
*2102 TAP_TAPCELL_ROW_40_382
*2103 TAP_TAPCELL_ROW_40_383
*2104 TAP_TAPCELL_ROW_41_384
*2105 TAP_TAPCELL_ROW_41_385
*2106 TAP_TAPCELL_ROW_41_386
*2107 TAP_TAPCELL_ROW_41_387
*2108 TAP_TAPCELL_ROW_41_388
*2109 TAP_TAPCELL_ROW_41_389
*2110 TAP_TAPCELL_ROW_42_390
*2111 TAP_TAPCELL_ROW_42_391
*2112 TAP_TAPCELL_ROW_42_392
*2113 TAP_TAPCELL_ROW_42_393
*2114 TAP_TAPCELL_ROW_42_394
*2115 TAP_TAPCELL_ROW_42_395
*2116 TAP_TAPCELL_ROW_43_396
*2117 TAP_TAPCELL_ROW_43_397
*2118 TAP_TAPCELL_ROW_43_398
*2119 TAP_TAPCELL_ROW_43_399
*2120 TAP_TAPCELL_ROW_43_400
*2121 TAP_TAPCELL_ROW_43_401
*2122 TAP_TAPCELL_ROW_44_402
*2123 TAP_TAPCELL_ROW_44_403
*2124 TAP_TAPCELL_ROW_44_404
*2125 TAP_TAPCELL_ROW_44_405
*2126 TAP_TAPCELL_ROW_44_406
*2127 TAP_TAPCELL_ROW_44_407
*2128 TAP_TAPCELL_ROW_45_408
*2129 TAP_TAPCELL_ROW_45_409
*2130 TAP_TAPCELL_ROW_45_410
*2131 TAP_TAPCELL_ROW_45_411
*2132 TAP_TAPCELL_ROW_45_412
*2133 TAP_TAPCELL_ROW_45_413
*2134 TAP_TAPCELL_ROW_46_414
*2135 TAP_TAPCELL_ROW_46_415
*2136 TAP_TAPCELL_ROW_46_416
*2137 TAP_TAPCELL_ROW_46_417
*2138 TAP_TAPCELL_ROW_46_418
*2139 TAP_TAPCELL_ROW_46_419
*2140 TAP_TAPCELL_ROW_47_420
*2141 TAP_TAPCELL_ROW_47_421
*2142 TAP_TAPCELL_ROW_47_422
*2143 TAP_TAPCELL_ROW_47_423
*2144 TAP_TAPCELL_ROW_47_424
*2145 TAP_TAPCELL_ROW_47_425
*2146 TAP_TAPCELL_ROW_48_426
*2147 TAP_TAPCELL_ROW_48_427
*2148 TAP_TAPCELL_ROW_48_428
*2149 TAP_TAPCELL_ROW_48_429
*2150 TAP_TAPCELL_ROW_48_430
*2151 TAP_TAPCELL_ROW_48_431
*2152 TAP_TAPCELL_ROW_49_432
*2153 TAP_TAPCELL_ROW_49_433
*2154 TAP_TAPCELL_ROW_49_434
*2155 TAP_TAPCELL_ROW_49_435
*2156 TAP_TAPCELL_ROW_49_436
*2157 TAP_TAPCELL_ROW_49_437
*2158 TAP_TAPCELL_ROW_50_438
*2159 TAP_TAPCELL_ROW_50_439
*2160 TAP_TAPCELL_ROW_50_440
*2161 TAP_TAPCELL_ROW_50_441
*2162 TAP_TAPCELL_ROW_50_442
*2163 TAP_TAPCELL_ROW_50_443
*2164 TAP_TAPCELL_ROW_51_444
*2165 TAP_TAPCELL_ROW_51_445
*2166 TAP_TAPCELL_ROW_51_446
*2167 TAP_TAPCELL_ROW_51_447
*2168 TAP_TAPCELL_ROW_51_448
*2169 TAP_TAPCELL_ROW_51_449
*2170 TAP_TAPCELL_ROW_52_450
*2171 TAP_TAPCELL_ROW_52_451
*2172 TAP_TAPCELL_ROW_52_452
*2173 TAP_TAPCELL_ROW_52_453
*2174 TAP_TAPCELL_ROW_52_454
*2175 TAP_TAPCELL_ROW_52_455
*2176 TAP_TAPCELL_ROW_53_456
*2177 TAP_TAPCELL_ROW_53_457
*2178 TAP_TAPCELL_ROW_53_458
*2179 TAP_TAPCELL_ROW_53_459
*2180 TAP_TAPCELL_ROW_53_460
*2181 TAP_TAPCELL_ROW_53_461
*2182 TAP_TAPCELL_ROW_54_462
*2183 TAP_TAPCELL_ROW_54_463
*2184 TAP_TAPCELL_ROW_54_464
*2185 TAP_TAPCELL_ROW_54_465
*2186 TAP_TAPCELL_ROW_54_466
*2187 TAP_TAPCELL_ROW_54_467
*2188 TAP_TAPCELL_ROW_55_468
*2189 TAP_TAPCELL_ROW_55_469
*2190 TAP_TAPCELL_ROW_55_470
*2191 TAP_TAPCELL_ROW_55_471
*2192 TAP_TAPCELL_ROW_55_472
*2193 TAP_TAPCELL_ROW_55_473
*2194 TAP_TAPCELL_ROW_56_474
*2195 TAP_TAPCELL_ROW_56_475
*2196 TAP_TAPCELL_ROW_56_476
*2197 TAP_TAPCELL_ROW_56_477
*2198 TAP_TAPCELL_ROW_56_478
*2199 TAP_TAPCELL_ROW_56_479
*2200 TAP_TAPCELL_ROW_57_480
*2201 TAP_TAPCELL_ROW_57_481
*2202 TAP_TAPCELL_ROW_57_482
*2203 TAP_TAPCELL_ROW_57_483
*2204 TAP_TAPCELL_ROW_57_484
*2205 TAP_TAPCELL_ROW_57_485
*2206 TAP_TAPCELL_ROW_58_486
*2207 TAP_TAPCELL_ROW_58_487
*2208 TAP_TAPCELL_ROW_58_488
*2209 TAP_TAPCELL_ROW_58_489
*2210 TAP_TAPCELL_ROW_58_490
*2211 TAP_TAPCELL_ROW_58_491
*2212 TAP_TAPCELL_ROW_59_492
*2213 TAP_TAPCELL_ROW_59_493
*2214 TAP_TAPCELL_ROW_59_494
*2215 TAP_TAPCELL_ROW_59_495
*2216 TAP_TAPCELL_ROW_59_496
*2217 TAP_TAPCELL_ROW_59_497
*2218 TAP_TAPCELL_ROW_60_498
*2219 TAP_TAPCELL_ROW_60_499
*2220 TAP_TAPCELL_ROW_60_500
*2221 TAP_TAPCELL_ROW_60_501
*2222 TAP_TAPCELL_ROW_60_502
*2223 TAP_TAPCELL_ROW_60_503
*2224 TAP_TAPCELL_ROW_61_504
*2225 TAP_TAPCELL_ROW_61_505
*2226 TAP_TAPCELL_ROW_61_506
*2227 TAP_TAPCELL_ROW_61_507
*2228 TAP_TAPCELL_ROW_61_508
*2229 TAP_TAPCELL_ROW_61_509
*2230 TAP_TAPCELL_ROW_62_510
*2231 TAP_TAPCELL_ROW_62_511
*2232 TAP_TAPCELL_ROW_62_512
*2233 TAP_TAPCELL_ROW_62_513
*2234 TAP_TAPCELL_ROW_62_514
*2235 TAP_TAPCELL_ROW_62_515
*2236 TAP_TAPCELL_ROW_63_516
*2237 TAP_TAPCELL_ROW_63_517
*2238 TAP_TAPCELL_ROW_63_518
*2239 TAP_TAPCELL_ROW_63_519
*2240 TAP_TAPCELL_ROW_63_520
*2241 TAP_TAPCELL_ROW_63_521
*2242 TAP_TAPCELL_ROW_64_522
*2243 TAP_TAPCELL_ROW_64_523
*2244 TAP_TAPCELL_ROW_64_524
*2245 TAP_TAPCELL_ROW_64_525
*2246 TAP_TAPCELL_ROW_64_526
*2247 TAP_TAPCELL_ROW_64_527
*2248 TAP_TAPCELL_ROW_65_528
*2249 TAP_TAPCELL_ROW_65_529
*2250 TAP_TAPCELL_ROW_65_530
*2251 TAP_TAPCELL_ROW_65_531
*2252 TAP_TAPCELL_ROW_65_532
*2253 TAP_TAPCELL_ROW_65_533
*2254 TAP_TAPCELL_ROW_65_534
*2255 TAP_TAPCELL_ROW_65_535
*2256 TAP_TAPCELL_ROW_65_536
*2257 TAP_TAPCELL_ROW_65_537
*2258 TAP_TAPCELL_ROW_65_538
*2259 TAP_TAPCELL_ROW_65_539
*2260 load_slew1
*2261 load_slew2
*2262 load_slew3
*2263 load_slew4
*2264 load_slew5
*2265 load_slew6
*2266 load_slew7
*2267 load_slew8
*2268 wire9
*2269 load_slew10
*2270 load_slew11
*2271 wire12
*2272 load_slew13
*2273 load_slew14
*2274 load_slew15
*2275 load_slew16
*2276 load_slew17
*2277 load_slew18
*2278 wire19
*2279 load_slew20
*2280 load_slew21
*2281 load_slew22
*2282 load_slew23
*2283 load_slew24
*2284 load_slew25
*2285 load_slew26
*2286 load_slew27
*2287 load_slew28
*2288 clkbuf_leaf_0_wclk
*2289 clkbuf_leaf_1_wclk
*2290 clkbuf_leaf_2_wclk
*2291 clkbuf_leaf_3_wclk
*2292 clkbuf_leaf_4_wclk
*2293 clkbuf_leaf_5_wclk
*2294 clkbuf_leaf_6_wclk
*2295 clkbuf_leaf_7_wclk
*2296 clkbuf_leaf_8_wclk
*2297 clkbuf_leaf_9_wclk
*2298 clkbuf_leaf_10_wclk
*2299 clkbuf_0_wclk
*2300 clkbuf_1_0__f_wclk
*2301 clkbuf_1_1__f_wclk
*2302 clkload0
*2303 clkload1
*2304 clkload2
*2305 clkload3
*2306 clkload4
*2307 clkload5
*2308 clkload6
*2309 clkload7
*2310 clkbuf_0_rclk
*2311 clkbuf_2_0__f_rclk
*2312 clkbuf_2_1__f_rclk
*2313 clkbuf_2_2__f_rclk
*2314 clkbuf_2_3__f_rclk
*2315 clkload8
*2316 clkload9
*2317 clkload10
*2318 load_slew29
*2319 load_slew30
*2320 load_slew31
*2321 load_slew32
*2322 FILLER_0_3
*2323 FILLER_0_11
*2324 FILLER_0_19
*2325 FILLER_0_27
*2326 FILLER_0_29
*2327 FILLER_0_31
*2328 FILLER_0_39
*2329 FILLER_0_47
*2330 FILLER_0_55
*2331 FILLER_0_59
*2332 FILLER_0_61
*2333 FILLER_0_69
*2334 FILLER_0_77
*2335 FILLER_0_85
*2336 FILLER_0_89
*2337 FILLER_0_91
*2338 FILLER_0_99
*2339 FILLER_0_107
*2340 FILLER_0_115
*2341 FILLER_0_119
*2342 FILLER_0_121
*2343 FILLER_0_129
*2344 FILLER_0_137
*2345 FILLER_0_145
*2346 FILLER_0_149
*2347 FILLER_0_151
*2348 FILLER_0_159
*2349 FILLER_0_167
*2350 FILLER_0_175
*2351 FILLER_0_179
*2352 FILLER_0_181
*2353 FILLER_0_189
*2354 FILLER_0_197
*2355 FILLER_0_205
*2356 FILLER_0_209
*2357 FILLER_0_211
*2358 FILLER_0_219
*2359 FILLER_0_227
*2360 FILLER_0_235
*2361 FILLER_0_239
*2362 FILLER_0_241
*2363 FILLER_0_249
*2364 FILLER_0_257
*2365 FILLER_0_265
*2366 FILLER_0_269
*2367 FILLER_0_271
*2368 FILLER_0_279
*2369 FILLER_0_287
*2370 FILLER_0_295
*2371 FILLER_0_299
*2372 FILLER_0_301
*2373 FILLER_0_309
*2374 FILLER_0_317
*2375 FILLER_0_325
*2376 FILLER_0_329
*2377 FILLER_0_331
*2378 FILLER_0_339
*2379 FILLER_0_347
*2380 FILLER_0_355
*2381 FILLER_0_359
*2382 FILLER_0_361
*2383 FILLER_0_369
*2384 FILLER_0_377
*2385 FILLER_0_385
*2386 FILLER_0_389
*2387 FILLER_1_3
*2388 FILLER_1_11
*2389 FILLER_1_23
*2390 FILLER_1_31
*2391 FILLER_1_39
*2392 FILLER_1_47
*2393 FILLER_1_55
*2394 FILLER_1_59
*2395 FILLER_1_61
*2396 FILLER_1_69
*2397 FILLER_1_77
*2398 FILLER_1_79
*2399 FILLER_1_104
*2400 FILLER_1_112
*2401 FILLER_1_121
*2402 FILLER_1_153
*2403 FILLER_1_161
*2404 FILLER_1_169
*2405 FILLER_1_177
*2406 FILLER_1_179
*2407 FILLER_1_181
*2408 FILLER_1_185
*2409 FILLER_1_191
*2410 FILLER_1_199
*2411 FILLER_1_203
*2412 FILLER_1_205
*2413 FILLER_1_230
*2414 FILLER_1_238
*2415 FILLER_1_241
*2416 FILLER_1_249
*2417 FILLER_1_274
*2418 FILLER_1_282
*2419 FILLER_1_290
*2420 FILLER_1_298
*2421 FILLER_1_301
*2422 FILLER_1_323
*2423 FILLER_1_331
*2424 FILLER_1_356
*2425 FILLER_1_361
*2426 FILLER_1_369
*2427 FILLER_1_377
*2428 FILLER_1_385
*2429 FILLER_1_389
*2430 FILLER_2_3
*2431 FILLER_2_11
*2432 FILLER_2_16
*2433 FILLER_2_24
*2434 FILLER_2_28
*2435 FILLER_2_31
*2436 FILLER_2_44
*2437 FILLER_2_52
*2438 FILLER_2_60
*2439 FILLER_2_86
*2440 FILLER_2_91
*2441 FILLER_2_99
*2442 FILLER_2_107
*2443 FILLER_2_115
*2444 FILLER_2_119
*2445 FILLER_2_121
*2446 FILLER_2_146
*2447 FILLER_2_151
*2448 FILLER_2_173
*2449 FILLER_2_181
*2450 FILLER_2_206
*2451 FILLER_2_211
*2452 FILLER_2_233
*2453 FILLER_2_241
*2454 FILLER_2_245
*2455 FILLER_2_251
*2456 FILLER_2_259
*2457 FILLER_2_267
*2458 FILLER_2_269
*2459 FILLER_2_271
*2460 FILLER_2_279
*2461 FILLER_2_281
*2462 FILLER_2_306
*2463 FILLER_2_314
*2464 FILLER_2_322
*2465 FILLER_2_331
*2466 FILLER_2_359
*2467 FILLER_2_367
*2468 FILLER_2_375
*2469 FILLER_2_383
*2470 FILLER_2_387
*2471 FILLER_2_389
*2472 FILLER_3_3
*2473 FILLER_3_7
*2474 FILLER_3_25
*2475 FILLER_3_29
*2476 FILLER_3_31
*2477 FILLER_3_56
*2478 FILLER_3_61
*2479 FILLER_3_65
*2480 FILLER_3_67
*2481 FILLER_3_73
*2482 FILLER_3_82
*2483 FILLER_3_110
*2484 FILLER_3_118
*2485 FILLER_3_121
*2486 FILLER_3_125
*2487 FILLER_3_131
*2488 FILLER_3_140
*2489 FILLER_3_168
*2490 FILLER_3_176
*2491 FILLER_3_181
*2492 FILLER_3_189
*2493 FILLER_3_195
*2494 FILLER_3_204
*2495 FILLER_3_232
*2496 FILLER_3_241
*2497 FILLER_3_269
*2498 FILLER_3_277
*2499 FILLER_3_281
*2500 FILLER_3_287
*2501 FILLER_3_296
*2502 FILLER_3_301
*2503 FILLER_3_329
*2504 FILLER_3_338
*2505 FILLER_3_347
*2506 FILLER_3_355
*2507 FILLER_3_359
*2508 FILLER_3_361
*2509 FILLER_3_369
*2510 FILLER_3_377
*2511 FILLER_3_385
*2512 FILLER_3_389
*2513 FILLER_4_3
*2514 FILLER_4_7
*2515 FILLER_4_25
*2516 FILLER_4_29
*2517 FILLER_4_31
*2518 FILLER_4_44
*2519 FILLER_4_72
*2520 FILLER_4_76
*2521 FILLER_4_86
*2522 FILLER_4_91
*2523 FILLER_4_113
*2524 FILLER_4_121
*2525 FILLER_4_127
*2526 FILLER_4_131
*2527 FILLER_4_133
*2528 FILLER_4_139
*2529 FILLER_4_147
*2530 FILLER_4_149
*2531 FILLER_4_151
*2532 FILLER_4_155
*2533 FILLER_4_164
*2534 FILLER_4_172
*2535 FILLER_4_180
*2536 FILLER_4_206
*2537 FILLER_4_211
*2538 FILLER_4_220
*2539 FILLER_4_228
*2540 FILLER_4_232
*2541 FILLER_4_238
*2542 FILLER_4_266
*2543 FILLER_4_271
*2544 FILLER_4_275
*2545 FILLER_4_281
*2546 FILLER_4_309
*2547 FILLER_4_317
*2548 FILLER_4_326
*2549 FILLER_4_331
*2550 FILLER_4_335
*2551 FILLER_4_337
*2552 FILLER_4_362
*2553 FILLER_4_384
*2554 FILLER_4_388
*2555 FILLER_5_3
*2556 FILLER_5_7
*2557 FILLER_5_25
*2558 FILLER_5_29
*2559 FILLER_5_31
*2560 FILLER_5_56
*2561 FILLER_5_61
*2562 FILLER_5_69
*2563 FILLER_5_73
*2564 FILLER_5_80
*2565 FILLER_5_108
*2566 FILLER_5_116
*2567 FILLER_5_121
*2568 FILLER_5_129
*2569 FILLER_5_137
*2570 FILLER_5_162
*2571 FILLER_5_170
*2572 FILLER_5_176
*2573 FILLER_5_181
*2574 FILLER_5_189
*2575 FILLER_5_193
*2576 FILLER_5_218
*2577 FILLER_5_230
*2578 FILLER_5_238
*2579 FILLER_5_241
*2580 FILLER_5_245
*2581 FILLER_5_271
*2582 FILLER_5_279
*2583 FILLER_5_283
*2584 FILLER_5_290
*2585 FILLER_5_298
*2586 FILLER_5_301
*2587 FILLER_5_309
*2588 FILLER_5_317
*2589 FILLER_5_325
*2590 FILLER_5_350
*2591 FILLER_5_358
*2592 FILLER_5_361
*2593 FILLER_5_365
*2594 FILLER_5_375
*2595 FILLER_5_383
*2596 FILLER_5_387
*2597 FILLER_5_389
*2598 FILLER_6_3
*2599 FILLER_6_7
*2600 FILLER_6_25
*2601 FILLER_6_29
*2602 FILLER_6_31
*2603 FILLER_6_35
*2604 FILLER_6_41
*2605 FILLER_6_69
*2606 FILLER_6_77
*2607 FILLER_6_86
*2608 FILLER_6_91
*2609 FILLER_6_99
*2610 FILLER_6_107
*2611 FILLER_6_111
*2612 FILLER_6_117
*2613 FILLER_6_145
*2614 FILLER_6_149
*2615 FILLER_6_151
*2616 FILLER_6_159
*2617 FILLER_6_167
*2618 FILLER_6_171
*2619 FILLER_6_197
*2620 FILLER_6_206
*2621 FILLER_6_211
*2622 FILLER_6_233
*2623 FILLER_6_241
*2624 FILLER_6_243
*2625 FILLER_6_249
*2626 FILLER_6_258
*2627 FILLER_6_266
*2628 FILLER_6_271
*2629 FILLER_6_279
*2630 FILLER_6_287
*2631 FILLER_6_291
*2632 FILLER_6_317
*2633 FILLER_6_325
*2634 FILLER_6_329
*2635 FILLER_6_331
*2636 FILLER_6_335
*2637 FILLER_6_337
*2638 FILLER_6_343
*2639 FILLER_6_352
*2640 FILLER_6_380
*2641 FILLER_6_388
*2642 FILLER_7_3
*2643 FILLER_7_8
*2644 FILLER_7_16
*2645 FILLER_7_24
*2646 FILLER_7_32
*2647 FILLER_7_40
*2648 FILLER_7_53
*2649 FILLER_7_57
*2650 FILLER_7_59
*2651 FILLER_7_61
*2652 FILLER_7_83
*2653 FILLER_7_91
*2654 FILLER_7_99
*2655 FILLER_7_107
*2656 FILLER_7_116
*2657 FILLER_7_121
*2658 FILLER_7_125
*2659 FILLER_7_132
*2660 FILLER_7_160
*2661 FILLER_7_168
*2662 FILLER_7_170
*2663 FILLER_7_176
*2664 FILLER_7_181
*2665 FILLER_7_209
*2666 FILLER_7_217
*2667 FILLER_7_225
*2668 FILLER_7_233
*2669 FILLER_7_237
*2670 FILLER_7_239
*2671 FILLER_7_241
*2672 FILLER_7_249
*2673 FILLER_7_257
*2674 FILLER_7_277
*2675 FILLER_7_285
*2676 FILLER_7_289
*2677 FILLER_7_296
*2678 FILLER_7_301
*2679 FILLER_7_309
*2680 FILLER_7_313
*2681 FILLER_7_323
*2682 FILLER_7_331
*2683 FILLER_7_339
*2684 FILLER_7_343
*2685 FILLER_7_349
*2686 FILLER_7_357
*2687 FILLER_7_359
*2688 FILLER_7_361
*2689 FILLER_7_389
*2690 FILLER_8_3
*2691 FILLER_8_11
*2692 FILLER_8_19
*2693 FILLER_8_27
*2694 FILLER_8_29
*2695 FILLER_8_31
*2696 FILLER_8_39
*2697 FILLER_8_47
*2698 FILLER_8_55
*2699 FILLER_8_63
*2700 FILLER_8_71
*2701 FILLER_8_86
*2702 FILLER_8_91
*2703 FILLER_8_99
*2704 FILLER_8_107
*2705 FILLER_8_115
*2706 FILLER_8_141
*2707 FILLER_8_149
*2708 FILLER_8_151
*2709 FILLER_8_159
*2710 FILLER_8_167
*2711 FILLER_8_171
*2712 FILLER_8_196
*2713 FILLER_8_204
*2714 FILLER_8_208
*2715 FILLER_8_211
*2716 FILLER_8_219
*2717 FILLER_8_227
*2718 FILLER_8_235
*2719 FILLER_8_243
*2720 FILLER_8_249
*2721 FILLER_8_257
*2722 FILLER_8_265
*2723 FILLER_8_269
*2724 FILLER_8_271
*2725 FILLER_8_279
*2726 FILLER_8_283
*2727 FILLER_8_285
*2728 FILLER_8_291
*2729 FILLER_8_319
*2730 FILLER_8_327
*2731 FILLER_8_329
*2732 FILLER_8_331
*2733 FILLER_8_335
*2734 FILLER_8_342
*2735 FILLER_8_370
*2736 FILLER_8_378
*2737 FILLER_8_386
*2738 FILLER_9_3
*2739 FILLER_9_11
*2740 FILLER_9_16
*2741 FILLER_9_24
*2742 FILLER_9_32
*2743 FILLER_9_40
*2744 FILLER_9_48
*2745 FILLER_9_56
*2746 FILLER_9_61
*2747 FILLER_9_69
*2748 FILLER_9_78
*2749 FILLER_9_106
*2750 FILLER_9_114
*2751 FILLER_9_118
*2752 FILLER_9_121
*2753 FILLER_9_129
*2754 FILLER_9_154
*2755 FILLER_9_162
*2756 FILLER_9_170
*2757 FILLER_9_176
*2758 FILLER_9_181
*2759 FILLER_9_189
*2760 FILLER_9_197
*2761 FILLER_9_205
*2762 FILLER_9_213
*2763 FILLER_9_221
*2764 FILLER_9_229
*2765 FILLER_9_237
*2766 FILLER_9_239
*2767 FILLER_9_241
*2768 FILLER_9_250
*2769 FILLER_9_254
*2770 FILLER_9_256
*2771 FILLER_9_275
*2772 FILLER_9_283
*2773 FILLER_9_285
*2774 FILLER_9_291
*2775 FILLER_9_299
*2776 FILLER_9_301
*2777 FILLER_9_329
*2778 FILLER_9_337
*2779 FILLER_9_345
*2780 FILLER_9_351
*2781 FILLER_9_359
*2782 FILLER_9_361
*2783 FILLER_9_365
*2784 FILLER_9_385
*2785 FILLER_9_389
*2786 FILLER_10_3
*2787 FILLER_10_7
*2788 FILLER_10_25
*2789 FILLER_10_29
*2790 FILLER_10_31
*2791 FILLER_10_44
*2792 FILLER_10_72
*2793 FILLER_10_76
*2794 FILLER_10_84
*2795 FILLER_10_88
*2796 FILLER_10_91
*2797 FILLER_10_99
*2798 FILLER_10_107
*2799 FILLER_10_115
*2800 FILLER_10_123
*2801 FILLER_10_131
*2802 FILLER_10_138
*2803 FILLER_10_146
*2804 FILLER_10_151
*2805 FILLER_10_155
*2806 FILLER_10_162
*2807 FILLER_10_170
*2808 FILLER_10_178
*2809 FILLER_10_186
*2810 FILLER_10_194
*2811 FILLER_10_202
*2812 FILLER_10_211
*2813 FILLER_10_219
*2814 FILLER_10_227
*2815 FILLER_10_235
*2816 FILLER_10_237
*2817 FILLER_10_262
*2818 FILLER_10_271
*2819 FILLER_10_283
*2820 FILLER_10_311
*2821 FILLER_10_319
*2822 FILLER_10_327
*2823 FILLER_10_329
*2824 FILLER_10_331
*2825 FILLER_10_339
*2826 FILLER_10_347
*2827 FILLER_10_373
*2828 FILLER_10_381
*2829 FILLER_10_389
*2830 FILLER_11_3
*2831 FILLER_11_7
*2832 FILLER_11_25
*2833 FILLER_11_29
*2834 FILLER_11_31
*2835 FILLER_11_56
*2836 FILLER_11_61
*2837 FILLER_11_83
*2838 FILLER_11_87
*2839 FILLER_11_112
*2840 FILLER_11_121
*2841 FILLER_11_129
*2842 FILLER_11_137
*2843 FILLER_11_141
*2844 FILLER_11_160
*2845 FILLER_11_171
*2846 FILLER_11_179
*2847 FILLER_11_181
*2848 FILLER_11_189
*2849 FILLER_11_221
*2850 FILLER_11_229
*2851 FILLER_11_236
*2852 FILLER_11_241
*2853 FILLER_11_269
*2854 FILLER_11_277
*2855 FILLER_11_285
*2856 FILLER_11_287
*2857 FILLER_11_293
*2858 FILLER_11_297
*2859 FILLER_11_299
*2860 FILLER_11_301
*2861 FILLER_11_305
*2862 FILLER_11_324
*2863 FILLER_11_339
*2864 FILLER_11_347
*2865 FILLER_11_355
*2866 FILLER_11_359
*2867 FILLER_11_361
*2868 FILLER_11_369
*2869 FILLER_11_377
*2870 FILLER_11_385
*2871 FILLER_11_389
*2872 FILLER_12_3
*2873 FILLER_12_11
*2874 FILLER_12_16
*2875 FILLER_12_24
*2876 FILLER_12_28
*2877 FILLER_12_31
*2878 FILLER_12_39
*2879 FILLER_12_46
*2880 FILLER_12_55
*2881 FILLER_12_59
*2882 FILLER_12_61
*2883 FILLER_12_86
*2884 FILLER_12_91
*2885 FILLER_12_100
*2886 FILLER_12_108
*2887 FILLER_12_140
*2888 FILLER_12_148
*2889 FILLER_12_151
*2890 FILLER_12_170
*2891 FILLER_12_178
*2892 FILLER_12_206
*2893 FILLER_12_211
*2894 FILLER_12_233
*2895 FILLER_12_241
*2896 FILLER_12_266
*2897 FILLER_12_271
*2898 FILLER_12_279
*2899 FILLER_12_287
*2900 FILLER_12_313
*2901 FILLER_12_321
*2902 FILLER_12_329
*2903 FILLER_12_331
*2904 FILLER_12_353
*2905 FILLER_12_362
*2906 FILLER_12_370
*2907 FILLER_12_378
*2908 FILLER_12_386
*2909 FILLER_13_3
*2910 FILLER_13_11
*2911 FILLER_13_17
*2912 FILLER_13_25
*2913 FILLER_13_29
*2914 FILLER_13_31
*2915 FILLER_13_56
*2916 FILLER_13_61
*2917 FILLER_13_69
*2918 FILLER_13_73
*2919 FILLER_13_82
*2920 FILLER_13_110
*2921 FILLER_13_118
*2922 FILLER_13_121
*2923 FILLER_13_125
*2924 FILLER_13_127
*2925 FILLER_13_133
*2926 FILLER_13_141
*2927 FILLER_13_148
*2928 FILLER_13_176
*2929 FILLER_13_181
*2930 FILLER_13_185
*2931 FILLER_13_187
*2932 FILLER_13_193
*2933 FILLER_13_202
*2934 FILLER_13_230
*2935 FILLER_13_238
*2936 FILLER_13_241
*2937 FILLER_13_273
*2938 FILLER_13_281
*2939 FILLER_13_289
*2940 FILLER_13_297
*2941 FILLER_13_299
*2942 FILLER_13_301
*2943 FILLER_13_309
*2944 FILLER_13_317
*2945 FILLER_13_321
*2946 FILLER_13_346
*2947 FILLER_13_350
*2948 FILLER_13_356
*2949 FILLER_13_361
*2950 FILLER_13_389
*2951 FILLER_14_3
*2952 FILLER_14_7
*2953 FILLER_14_25
*2954 FILLER_14_29
*2955 FILLER_14_31
*2956 FILLER_14_39
*2957 FILLER_14_41
*2958 FILLER_14_47
*2959 FILLER_14_75
*2960 FILLER_14_79
*2961 FILLER_14_86
*2962 FILLER_14_91
*2963 FILLER_14_95
*2964 FILLER_14_114
*2965 FILLER_14_146
*2966 FILLER_14_151
*2967 FILLER_14_159
*2968 FILLER_14_185
*2969 FILLER_14_189
*2970 FILLER_14_196
*2971 FILLER_14_205
*2972 FILLER_14_209
*2973 FILLER_14_211
*2974 FILLER_14_219
*2975 FILLER_14_234
*2976 FILLER_14_245
*2977 FILLER_14_254
*2978 FILLER_14_262
*2979 FILLER_14_271
*2980 FILLER_14_279
*2981 FILLER_14_287
*2982 FILLER_14_295
*2983 FILLER_14_303
*2984 FILLER_14_316
*2985 FILLER_14_320
*2986 FILLER_14_326
*2987 FILLER_14_331
*2988 FILLER_14_339
*2989 FILLER_14_347
*2990 FILLER_14_375
*2991 FILLER_14_383
*2992 FILLER_14_387
*2993 FILLER_14_389
*2994 FILLER_15_3
*2995 FILLER_15_11
*2996 FILLER_15_19
*2997 FILLER_15_27
*2998 FILLER_15_35
*2999 FILLER_15_43
*3000 FILLER_15_51
*3001 FILLER_15_59
*3002 FILLER_15_61
*3003 FILLER_15_69
*3004 FILLER_15_77
*3005 FILLER_15_84
*3006 FILLER_15_92
*3007 FILLER_15_100
*3008 FILLER_15_107
*3009 FILLER_15_116
*3010 FILLER_15_121
*3011 FILLER_15_129
*3012 FILLER_15_148
*3013 FILLER_15_176
*3014 FILLER_15_181
*3015 FILLER_15_189
*3016 FILLER_15_197
*3017 FILLER_15_201
*3018 FILLER_15_227
*3019 FILLER_15_235
*3020 FILLER_15_239
*3021 FILLER_15_241
*3022 FILLER_15_249
*3023 FILLER_15_257
*3024 FILLER_15_265
*3025 FILLER_15_269
*3026 FILLER_15_275
*3027 FILLER_15_284
*3028 FILLER_15_292
*3029 FILLER_15_301
*3030 FILLER_15_309
*3031 FILLER_15_335
*3032 FILLER_15_344
*3033 FILLER_15_348
*3034 FILLER_15_355
*3035 FILLER_15_359
*3036 FILLER_15_361
*3037 FILLER_15_389
*3038 FILLER_16_3
*3039 FILLER_16_7
*3040 FILLER_16_9
*3041 FILLER_16_26
*3042 FILLER_16_31
*3043 FILLER_16_39
*3044 FILLER_16_47
*3045 FILLER_16_55
*3046 FILLER_16_63
*3047 FILLER_16_71
*3048 FILLER_16_79
*3049 FILLER_16_87
*3050 FILLER_16_89
*3051 FILLER_16_91
*3052 FILLER_16_99
*3053 FILLER_16_107
*3054 FILLER_16_109
*3055 FILLER_16_115
*3056 FILLER_16_143
*3057 FILLER_16_147
*3058 FILLER_16_149
*3059 FILLER_16_151
*3060 FILLER_16_155
*3061 FILLER_16_157
*3062 FILLER_16_182
*3063 FILLER_16_190
*3064 FILLER_16_198
*3065 FILLER_16_206
*3066 FILLER_16_211
*3067 FILLER_16_219
*3068 FILLER_16_223
*3069 FILLER_16_233
*3070 FILLER_16_241
*3071 FILLER_16_245
*3072 FILLER_16_252
*3073 FILLER_16_261
*3074 FILLER_16_269
*3075 FILLER_16_271
*3076 FILLER_16_299
*3077 FILLER_16_307
*3078 FILLER_16_311
*3079 FILLER_16_313
*3080 FILLER_16_319
*3081 FILLER_16_327
*3082 FILLER_16_329
*3083 FILLER_16_331
*3084 FILLER_16_359
*3085 FILLER_16_387
*3086 FILLER_16_389
*3087 FILLER_17_3
*3088 FILLER_17_5
*3089 FILLER_17_10
*3090 FILLER_17_30
*3091 FILLER_17_38
*3092 FILLER_17_46
*3093 FILLER_17_54
*3094 FILLER_17_58
*3095 FILLER_17_61
*3096 FILLER_17_69
*3097 FILLER_17_77
*3098 FILLER_17_85
*3099 FILLER_17_87
*3100 FILLER_17_112
*3101 FILLER_17_121
*3102 FILLER_17_153
*3103 FILLER_17_157
*3104 FILLER_17_176
*3105 FILLER_17_181
*3106 FILLER_17_189
*3107 FILLER_17_221
*3108 FILLER_17_229
*3109 FILLER_17_237
*3110 FILLER_17_239
*3111 FILLER_17_241
*3112 FILLER_17_249
*3113 FILLER_17_274
*3114 FILLER_17_296
*3115 FILLER_17_301
*3116 FILLER_17_309
*3117 FILLER_17_313
*3118 FILLER_17_338
*3119 FILLER_17_346
*3120 FILLER_17_350
*3121 FILLER_17_356
*3122 FILLER_17_361
*3123 FILLER_17_365
*3124 FILLER_17_385
*3125 FILLER_17_389
*3126 FILLER_18_3
*3127 FILLER_18_7
*3128 FILLER_18_9
*3129 FILLER_18_26
*3130 FILLER_18_31
*3131 FILLER_18_39
*3132 FILLER_18_47
*3133 FILLER_18_49
*3134 FILLER_18_74
*3135 FILLER_18_78
*3136 FILLER_18_80
*3137 FILLER_18_86
*3138 FILLER_18_91
*3139 FILLER_18_100
*3140 FILLER_18_108
*3141 FILLER_18_116
*3142 FILLER_18_124
*3143 FILLER_18_132
*3144 FILLER_18_140
*3145 FILLER_18_148
*3146 FILLER_18_151
*3147 FILLER_18_155
*3148 FILLER_18_157
*3149 FILLER_18_166
*3150 FILLER_18_174
*3151 FILLER_18_206
*3152 FILLER_18_211
*3153 FILLER_18_233
*3154 FILLER_18_241
*3155 FILLER_18_266
*3156 FILLER_18_271
*3157 FILLER_18_275
*3158 FILLER_18_301
*3159 FILLER_18_309
*3160 FILLER_18_317
*3161 FILLER_18_325
*3162 FILLER_18_329
*3163 FILLER_18_331
*3164 FILLER_18_339
*3165 FILLER_18_347
*3166 FILLER_18_363
*3167 FILLER_18_371
*3168 FILLER_18_379
*3169 FILLER_18_387
*3170 FILLER_18_389
*3171 FILLER_19_7
*3172 FILLER_19_15
*3173 FILLER_19_30
*3174 FILLER_19_38
*3175 FILLER_19_47
*3176 FILLER_19_56
*3177 FILLER_19_61
*3178 FILLER_19_65
*3179 FILLER_19_67
*3180 FILLER_19_86
*3181 FILLER_19_90
*3182 FILLER_19_115
*3183 FILLER_19_119
*3184 FILLER_19_121
*3185 FILLER_19_129
*3186 FILLER_19_137
*3187 FILLER_19_145
*3188 FILLER_19_152
*3189 FILLER_19_161
*3190 FILLER_19_169
*3191 FILLER_19_177
*3192 FILLER_19_179
*3193 FILLER_19_181
*3194 FILLER_19_185
*3195 FILLER_19_187
*3196 FILLER_19_193
*3197 FILLER_19_202
*3198 FILLER_19_230
*3199 FILLER_19_238
*3200 FILLER_19_241
*3201 FILLER_19_255
*3202 FILLER_19_263
*3203 FILLER_19_265
*3204 FILLER_19_290
*3205 FILLER_19_298
*3206 FILLER_19_301
*3207 FILLER_19_309
*3208 FILLER_19_317
*3209 FILLER_19_325
*3210 FILLER_19_333
*3211 FILLER_19_341
*3212 FILLER_19_349
*3213 FILLER_19_357
*3214 FILLER_19_359
*3215 FILLER_19_361
*3216 FILLER_19_369
*3217 FILLER_19_377
*3218 FILLER_19_385
*3219 FILLER_19_389
*3220 FILLER_20_3
*3221 FILLER_20_11
*3222 FILLER_20_13
*3223 FILLER_20_18
*3224 FILLER_20_26
*3225 FILLER_20_31
*3226 FILLER_20_39
*3227 FILLER_20_45
*3228 FILLER_20_54
*3229 FILLER_20_82
*3230 FILLER_20_91
*3231 FILLER_20_123
*3232 FILLER_20_131
*3233 FILLER_20_139
*3234 FILLER_20_147
*3235 FILLER_20_149
*3236 FILLER_20_151
*3237 FILLER_20_159
*3238 FILLER_20_167
*3239 FILLER_20_175
*3240 FILLER_20_183
*3241 FILLER_20_196
*3242 FILLER_20_205
*3243 FILLER_20_209
*3244 FILLER_20_211
*3245 FILLER_20_219
*3246 FILLER_20_227
*3247 FILLER_20_236
*3248 FILLER_20_264
*3249 FILLER_20_268
*3250 FILLER_20_271
*3251 FILLER_20_280
*3252 FILLER_20_284
*3253 FILLER_20_293
*3254 FILLER_20_301
*3255 FILLER_20_309
*3256 FILLER_20_313
*3257 FILLER_20_319
*3258 FILLER_20_327
*3259 FILLER_20_329
*3260 FILLER_20_331
*3261 FILLER_20_339
*3262 FILLER_20_347
*3263 FILLER_20_351
*3264 FILLER_20_353
*3265 FILLER_20_359
*3266 FILLER_20_367
*3267 FILLER_20_375
*3268 FILLER_20_383
*3269 FILLER_20_387
*3270 FILLER_20_389
*3271 FILLER_21_3
*3272 FILLER_21_11
*3273 FILLER_21_28
*3274 FILLER_21_56
*3275 FILLER_21_61
*3276 FILLER_21_69
*3277 FILLER_21_77
*3278 FILLER_21_79
*3279 FILLER_21_88
*3280 FILLER_21_116
*3281 FILLER_21_121
*3282 FILLER_21_129
*3283 FILLER_21_137
*3284 FILLER_21_163
*3285 FILLER_21_171
*3286 FILLER_21_179
*3287 FILLER_21_181
*3288 FILLER_21_189
*3289 FILLER_21_197
*3290 FILLER_21_201
*3291 FILLER_21_227
*3292 FILLER_21_235
*3293 FILLER_21_239
*3294 FILLER_21_241
*3295 FILLER_21_269
*3296 FILLER_21_291
*3297 FILLER_21_299
*3298 FILLER_21_301
*3299 FILLER_21_305
*3300 FILLER_21_311
*3301 FILLER_21_339
*3302 FILLER_21_347
*3303 FILLER_21_356
*3304 FILLER_21_361
*3305 FILLER_21_365
*3306 FILLER_21_385
*3307 FILLER_21_389
*3308 FILLER_22_3
*3309 FILLER_22_7
*3310 FILLER_22_9
*3311 FILLER_22_26
*3312 FILLER_22_31
*3313 FILLER_22_39
*3314 FILLER_22_47
*3315 FILLER_22_79
*3316 FILLER_22_87
*3317 FILLER_22_89
*3318 FILLER_22_91
*3319 FILLER_22_100
*3320 FILLER_22_104
*3321 FILLER_22_106
*3322 FILLER_22_125
*3323 FILLER_22_133
*3324 FILLER_22_141
*3325 FILLER_22_149
*3326 FILLER_22_151
*3327 FILLER_22_159
*3328 FILLER_22_167
*3329 FILLER_22_175
*3330 FILLER_22_184
*3331 FILLER_22_192
*3332 FILLER_22_196
*3333 FILLER_22_206
*3334 FILLER_22_211
*3335 FILLER_22_219
*3336 FILLER_22_227
*3337 FILLER_22_235
*3338 FILLER_22_248
*3339 FILLER_22_256
*3340 FILLER_22_263
*3341 FILLER_22_267
*3342 FILLER_22_269
*3343 FILLER_22_271
*3344 FILLER_22_279
*3345 FILLER_22_287
*3346 FILLER_22_295
*3347 FILLER_22_299
*3348 FILLER_22_301
*3349 FILLER_22_326
*3350 FILLER_22_331
*3351 FILLER_22_339
*3352 FILLER_22_347
*3353 FILLER_22_349
*3354 FILLER_22_374
*3355 FILLER_22_382
*3356 FILLER_23_3
*3357 FILLER_23_8
*3358 FILLER_23_28
*3359 FILLER_23_36
*3360 FILLER_23_44
*3361 FILLER_23_52
*3362 FILLER_23_61
*3363 FILLER_23_69
*3364 FILLER_23_77
*3365 FILLER_23_85
*3366 FILLER_23_98
*3367 FILLER_23_106
*3368 FILLER_23_114
*3369 FILLER_23_118
*3370 FILLER_23_121
*3371 FILLER_23_129
*3372 FILLER_23_135
*3373 FILLER_23_144
*3374 FILLER_23_172
*3375 FILLER_23_181
*3376 FILLER_23_213
*3377 FILLER_23_221
*3378 FILLER_23_229
*3379 FILLER_23_237
*3380 FILLER_23_239
*3381 FILLER_23_241
*3382 FILLER_23_249
*3383 FILLER_23_257
*3384 FILLER_23_283
*3385 FILLER_23_291
*3386 FILLER_23_299
*3387 FILLER_23_301
*3388 FILLER_23_329
*3389 FILLER_23_351
*3390 FILLER_23_359
*3391 FILLER_23_361
*3392 FILLER_23_389
*3393 FILLER_24_3
*3394 FILLER_24_7
*3395 FILLER_24_9
*3396 FILLER_24_26
*3397 FILLER_24_31
*3398 FILLER_24_39
*3399 FILLER_24_47
*3400 FILLER_24_55
*3401 FILLER_24_63
*3402 FILLER_24_71
*3403 FILLER_24_79
*3404 FILLER_24_87
*3405 FILLER_24_89
*3406 FILLER_24_91
*3407 FILLER_24_99
*3408 FILLER_24_107
*3409 FILLER_24_115
*3410 FILLER_24_119
*3411 FILLER_24_121
*3412 FILLER_24_146
*3413 FILLER_24_151
*3414 FILLER_24_155
*3415 FILLER_24_174
*3416 FILLER_24_182
*3417 FILLER_24_191
*3418 FILLER_24_206
*3419 FILLER_24_211
*3420 FILLER_24_224
*3421 FILLER_24_232
*3422 FILLER_24_240
*3423 FILLER_24_248
*3424 FILLER_24_256
*3425 FILLER_24_264
*3426 FILLER_24_268
*3427 FILLER_24_271
*3428 FILLER_24_279
*3429 FILLER_24_287
*3430 FILLER_24_295
*3431 FILLER_24_303
*3432 FILLER_24_309
*3433 FILLER_24_318
*3434 FILLER_24_326
*3435 FILLER_24_331
*3436 FILLER_24_339
*3437 FILLER_24_349
*3438 FILLER_24_377
*3439 FILLER_24_385
*3440 FILLER_24_389
*3441 FILLER_25_3
*3442 FILLER_25_11
*3443 FILLER_25_39
*3444 FILLER_25_47
*3445 FILLER_25_55
*3446 FILLER_25_59
*3447 FILLER_25_61
*3448 FILLER_25_69
*3449 FILLER_25_77
*3450 FILLER_25_85
*3451 FILLER_25_87
*3452 FILLER_25_112
*3453 FILLER_25_121
*3454 FILLER_25_129
*3455 FILLER_25_133
*3456 FILLER_25_135
*3457 FILLER_25_141
*3458 FILLER_25_169
*3459 FILLER_25_177
*3460 FILLER_25_179
*3461 FILLER_25_181
*3462 FILLER_25_194
*3463 FILLER_25_222
*3464 FILLER_25_230
*3465 FILLER_25_238
*3466 FILLER_25_241
*3467 FILLER_25_249
*3468 FILLER_25_257
*3469 FILLER_25_265
*3470 FILLER_25_267
*3471 FILLER_25_273
*3472 FILLER_25_281
*3473 FILLER_25_296
*3474 FILLER_25_301
*3475 FILLER_25_309
*3476 FILLER_25_335
*3477 FILLER_25_343
*3478 FILLER_25_347
*3479 FILLER_25_354
*3480 FILLER_25_358
*3481 FILLER_25_361
*3482 FILLER_25_389
*3483 FILLER_26_3
*3484 FILLER_26_7
*3485 FILLER_26_9
*3486 FILLER_26_26
*3487 FILLER_26_31
*3488 FILLER_26_39
*3489 FILLER_26_47
*3490 FILLER_26_73
*3491 FILLER_26_86
*3492 FILLER_26_91
*3493 FILLER_26_100
*3494 FILLER_26_108
*3495 FILLER_26_116
*3496 FILLER_26_124
*3497 FILLER_26_132
*3498 FILLER_26_136
*3499 FILLER_26_142
*3500 FILLER_26_151
*3501 FILLER_26_159
*3502 FILLER_26_167
*3503 FILLER_26_175
*3504 FILLER_26_179
*3505 FILLER_26_181
*3506 FILLER_26_206
*3507 FILLER_26_211
*3508 FILLER_26_233
*3509 FILLER_26_237
*3510 FILLER_26_262
*3511 FILLER_26_271
*3512 FILLER_26_279
*3513 FILLER_26_304
*3514 FILLER_26_312
*3515 FILLER_26_320
*3516 FILLER_26_328
*3517 FILLER_26_331
*3518 FILLER_26_339
*3519 FILLER_26_347
*3520 FILLER_26_360
*3521 FILLER_26_368
*3522 FILLER_26_376
*3523 FILLER_26_384
*3524 FILLER_26_388
*3525 FILLER_27_3
*3526 FILLER_27_27
*3527 FILLER_27_31
*3528 FILLER_27_56
*3529 FILLER_27_61
*3530 FILLER_27_65
*3531 FILLER_27_67
*3532 FILLER_27_86
*3533 FILLER_27_90
*3534 FILLER_27_116
*3535 FILLER_27_121
*3536 FILLER_27_129
*3537 FILLER_27_157
*3538 FILLER_27_173
*3539 FILLER_27_177
*3540 FILLER_27_179
*3541 FILLER_27_181
*3542 FILLER_27_190
*3543 FILLER_27_218
*3544 FILLER_27_226
*3545 FILLER_27_230
*3546 FILLER_27_236
*3547 FILLER_27_241
*3548 FILLER_27_269
*3549 FILLER_27_281
*3550 FILLER_27_296
*3551 FILLER_27_301
*3552 FILLER_27_309
*3553 FILLER_27_317
*3554 FILLER_27_321
*3555 FILLER_27_323
*3556 FILLER_27_329
*3557 FILLER_27_337
*3558 FILLER_27_345
*3559 FILLER_27_349
*3560 FILLER_27_356
*3561 FILLER_27_361
*3562 FILLER_27_369
*3563 FILLER_27_377
*3564 FILLER_27_385
*3565 FILLER_27_389
*3566 FILLER_28_3
*3567 FILLER_28_7
*3568 FILLER_28_9
*3569 FILLER_28_26
*3570 FILLER_28_31
*3571 FILLER_28_39
*3572 FILLER_28_45
*3573 FILLER_28_54
*3574 FILLER_28_82
*3575 FILLER_28_91
*3576 FILLER_28_99
*3577 FILLER_28_107
*3578 FILLER_28_116
*3579 FILLER_28_120
*3580 FILLER_28_146
*3581 FILLER_28_151
*3582 FILLER_28_173
*3583 FILLER_28_181
*3584 FILLER_28_189
*3585 FILLER_28_197
*3586 FILLER_28_205
*3587 FILLER_28_209
*3588 FILLER_28_211
*3589 FILLER_28_219
*3590 FILLER_28_223
*3591 FILLER_28_229
*3592 FILLER_28_257
*3593 FILLER_28_266
*3594 FILLER_28_271
*3595 FILLER_28_299
*3596 FILLER_28_321
*3597 FILLER_28_329
*3598 FILLER_28_331
*3599 FILLER_28_339
*3600 FILLER_28_347
*3601 FILLER_28_354
*3602 FILLER_28_382
*3603 FILLER_29_3
*3604 FILLER_29_11
*3605 FILLER_29_26
*3606 FILLER_29_34
*3607 FILLER_29_47
*3608 FILLER_29_56
*3609 FILLER_29_61
*3610 FILLER_29_69
*3611 FILLER_29_76
*3612 FILLER_29_88
*3613 FILLER_29_116
*3614 FILLER_29_121
*3615 FILLER_29_125
*3616 FILLER_29_132
*3617 FILLER_29_141
*3618 FILLER_29_169
*3619 FILLER_29_177
*3620 FILLER_29_179
*3621 FILLER_29_181
*3622 FILLER_29_189
*3623 FILLER_29_197
*3624 FILLER_29_205
*3625 FILLER_29_213
*3626 FILLER_29_221
*3627 FILLER_29_229
*3628 FILLER_29_236
*3629 FILLER_29_241
*3630 FILLER_29_245
*3631 FILLER_29_265
*3632 FILLER_29_293
*3633 FILLER_29_297
*3634 FILLER_29_299
*3635 FILLER_29_301
*3636 FILLER_29_309
*3637 FILLER_29_334
*3638 FILLER_29_356
*3639 FILLER_29_361
*3640 FILLER_29_389
*3641 FILLER_30_3
*3642 FILLER_30_11
*3643 FILLER_30_13
*3644 FILLER_30_18
*3645 FILLER_30_26
*3646 FILLER_30_31
*3647 FILLER_30_39
*3648 FILLER_30_47
*3649 FILLER_30_51
*3650 FILLER_30_53
*3651 FILLER_30_78
*3652 FILLER_30_86
*3653 FILLER_30_91
*3654 FILLER_30_99
*3655 FILLER_30_121
*3656 FILLER_30_125
*3657 FILLER_30_131
*3658 FILLER_30_135
*3659 FILLER_30_137
*3660 FILLER_30_143
*3661 FILLER_30_147
*3662 FILLER_30_149
*3663 FILLER_30_151
*3664 FILLER_30_159
*3665 FILLER_30_167
*3666 FILLER_30_175
*3667 FILLER_30_188
*3668 FILLER_30_197
*3669 FILLER_30_205
*3670 FILLER_30_209
*3671 FILLER_30_211
*3672 FILLER_30_219
*3673 FILLER_30_227
*3674 FILLER_30_259
*3675 FILLER_30_267
*3676 FILLER_30_269
*3677 FILLER_30_271
*3678 FILLER_30_275
*3679 FILLER_30_277
*3680 FILLER_30_302
*3681 FILLER_30_306
*3682 FILLER_30_308
*3683 FILLER_30_314
*3684 FILLER_30_323
*3685 FILLER_30_327
*3686 FILLER_30_329
*3687 FILLER_30_331
*3688 FILLER_30_359
*3689 FILLER_30_387
*3690 FILLER_30_389
*3691 FILLER_31_3
*3692 FILLER_31_11
*3693 FILLER_31_19
*3694 FILLER_31_24
*3695 FILLER_31_32
*3696 FILLER_31_40
*3697 FILLER_31_48
*3698 FILLER_31_56
*3699 FILLER_31_61
*3700 FILLER_31_69
*3701 FILLER_31_77
*3702 FILLER_31_85
*3703 FILLER_31_110
*3704 FILLER_31_118
*3705 FILLER_31_121
*3706 FILLER_31_129
*3707 FILLER_31_137
*3708 FILLER_31_165
*3709 FILLER_31_173
*3710 FILLER_31_177
*3711 FILLER_31_179
*3712 FILLER_31_181
*3713 FILLER_31_190
*3714 FILLER_31_218
*3715 FILLER_31_226
*3716 FILLER_31_234
*3717 FILLER_31_238
*3718 FILLER_31_241
*3719 FILLER_31_249
*3720 FILLER_31_257
*3721 FILLER_31_265
*3722 FILLER_31_278
*3723 FILLER_31_287
*3724 FILLER_31_295
*3725 FILLER_31_299
*3726 FILLER_31_301
*3727 FILLER_31_309
*3728 FILLER_31_311
*3729 FILLER_31_336
*3730 FILLER_31_340
*3731 FILLER_31_346
*3732 FILLER_31_355
*3733 FILLER_31_359
*3734 FILLER_31_361
*3735 FILLER_31_365
*3736 FILLER_31_385
*3737 FILLER_31_389
*3738 FILLER_32_3
*3739 FILLER_32_7
*3740 FILLER_32_9
*3741 FILLER_32_26
*3742 FILLER_32_31
*3743 FILLER_32_39
*3744 FILLER_32_47
*3745 FILLER_32_55
*3746 FILLER_32_57
*3747 FILLER_32_69
*3748 FILLER_32_77
*3749 FILLER_32_85
*3750 FILLER_32_89
*3751 FILLER_32_91
*3752 FILLER_32_99
*3753 FILLER_32_101
*3754 FILLER_32_113
*3755 FILLER_32_121
*3756 FILLER_32_129
*3757 FILLER_32_137
*3758 FILLER_32_145
*3759 FILLER_32_149
*3760 FILLER_32_151
*3761 FILLER_32_160
*3762 FILLER_32_168
*3763 FILLER_32_172
*3764 FILLER_32_178
*3765 FILLER_32_206
*3766 FILLER_32_211
*3767 FILLER_32_233
*3768 FILLER_32_241
*3769 FILLER_32_249
*3770 FILLER_32_257
*3771 FILLER_32_265
*3772 FILLER_32_269
*3773 FILLER_32_271
*3774 FILLER_32_280
*3775 FILLER_32_288
*3776 FILLER_32_296
*3777 FILLER_32_304
*3778 FILLER_32_312
*3779 FILLER_32_316
*3780 FILLER_32_323
*3781 FILLER_32_327
*3782 FILLER_32_329
*3783 FILLER_32_331
*3784 FILLER_32_339
*3785 FILLER_32_347
*3786 FILLER_32_375
*3787 FILLER_32_383
*3788 FILLER_32_387
*3789 FILLER_32_389
*3790 FILLER_33_3
*3791 FILLER_33_11
*3792 FILLER_33_23
*3793 FILLER_33_31
*3794 FILLER_33_39
*3795 FILLER_33_47
*3796 FILLER_33_55
*3797 FILLER_33_59
*3798 FILLER_33_61
*3799 FILLER_33_69
*3800 FILLER_33_77
*3801 FILLER_33_85
*3802 FILLER_33_87
*3803 FILLER_33_93
*3804 FILLER_33_102
*3805 FILLER_33_110
*3806 FILLER_33_118
*3807 FILLER_33_121
*3808 FILLER_33_129
*3809 FILLER_33_137
*3810 FILLER_33_165
*3811 FILLER_33_173
*3812 FILLER_33_177
*3813 FILLER_33_179
*3814 FILLER_33_181
*3815 FILLER_33_189
*3816 FILLER_33_215
*3817 FILLER_33_227
*3818 FILLER_33_236
*3819 FILLER_33_241
*3820 FILLER_33_250
*3821 FILLER_33_258
*3822 FILLER_33_266
*3823 FILLER_33_274
*3824 FILLER_33_282
*3825 FILLER_33_290
*3826 FILLER_33_298
*3827 FILLER_33_301
*3828 FILLER_33_309
*3829 FILLER_33_317
*3830 FILLER_33_343
*3831 FILLER_33_347
*3832 FILLER_33_356
*3833 FILLER_33_361
*3834 FILLER_33_369
*3835 FILLER_33_377
*3836 FILLER_33_385
*3837 FILLER_33_389
*3838 FILLER_34_3
*3839 FILLER_34_7
*3840 FILLER_34_9
*3841 FILLER_34_26
*3842 FILLER_34_31
*3843 FILLER_34_39
*3844 FILLER_34_41
*3845 FILLER_34_47
*3846 FILLER_34_51
*3847 FILLER_34_77
*3848 FILLER_34_85
*3849 FILLER_34_89
*3850 FILLER_34_91
*3851 FILLER_34_104
*3852 FILLER_34_112
*3853 FILLER_34_120
*3854 FILLER_34_146
*3855 FILLER_34_151
*3856 FILLER_34_155
*3857 FILLER_34_163
*3858 FILLER_34_171
*3859 FILLER_34_179
*3860 FILLER_34_181
*3861 FILLER_34_206
*3862 FILLER_34_211
*3863 FILLER_34_219
*3864 FILLER_34_227
*3865 FILLER_34_229
*3866 FILLER_34_254
*3867 FILLER_34_262
*3868 FILLER_34_271
*3869 FILLER_34_279
*3870 FILLER_34_304
*3871 FILLER_34_312
*3872 FILLER_34_320
*3873 FILLER_34_328
*3874 FILLER_34_331
*3875 FILLER_34_339
*3876 FILLER_34_347
*3877 FILLER_34_355
*3878 FILLER_34_363
*3879 FILLER_34_371
*3880 FILLER_34_379
*3881 FILLER_34_387
*3882 FILLER_34_389
*3883 FILLER_35_3
*3884 FILLER_35_11
*3885 FILLER_35_31
*3886 FILLER_35_39
*3887 FILLER_35_46
*3888 FILLER_35_56
*3889 FILLER_35_61
*3890 FILLER_35_69
*3891 FILLER_35_88
*3892 FILLER_35_116
*3893 FILLER_35_121
*3894 FILLER_35_143
*3895 FILLER_35_151
*3896 FILLER_35_176
*3897 FILLER_35_181
*3898 FILLER_35_189
*3899 FILLER_35_208
*3900 FILLER_35_216
*3901 FILLER_35_220
*3902 FILLER_35_226
*3903 FILLER_35_235
*3904 FILLER_35_239
*3905 FILLER_35_241
*3906 FILLER_35_269
*3907 FILLER_35_278
*3908 FILLER_35_287
*3909 FILLER_35_295
*3910 FILLER_35_299
*3911 FILLER_35_301
*3912 FILLER_35_309
*3913 FILLER_35_317
*3914 FILLER_35_349
*3915 FILLER_35_357
*3916 FILLER_35_359
*3917 FILLER_35_361
*3918 FILLER_35_369
*3919 FILLER_35_377
*3920 FILLER_35_385
*3921 FILLER_35_389
*3922 FILLER_36_3
*3923 FILLER_36_7
*3924 FILLER_36_9
*3925 FILLER_36_26
*3926 FILLER_36_31
*3927 FILLER_36_39
*3928 FILLER_36_47
*3929 FILLER_36_51
*3930 FILLER_36_57
*3931 FILLER_36_85
*3932 FILLER_36_89
*3933 FILLER_36_91
*3934 FILLER_36_99
*3935 FILLER_36_127
*3936 FILLER_36_131
*3937 FILLER_36_137
*3938 FILLER_36_146
*3939 FILLER_36_151
*3940 FILLER_36_159
*3941 FILLER_36_178
*3942 FILLER_36_186
*3943 FILLER_36_194
*3944 FILLER_36_202
*3945 FILLER_36_211
*3946 FILLER_36_219
*3947 FILLER_36_227
*3948 FILLER_36_231
*3949 FILLER_36_257
*3950 FILLER_36_266
*3951 FILLER_36_271
*3952 FILLER_36_299
*3953 FILLER_36_307
*3954 FILLER_36_314
*3955 FILLER_36_318
*3956 FILLER_36_320
*3957 FILLER_36_326
*3958 FILLER_36_331
*3959 FILLER_36_339
*3960 FILLER_36_343
*3961 FILLER_36_345
*3962 FILLER_36_354
*3963 FILLER_36_382
*3964 FILLER_37_3
*3965 FILLER_37_11
*3966 FILLER_37_15
*3967 FILLER_37_21
*3968 FILLER_37_29
*3969 FILLER_37_37
*3970 FILLER_37_45
*3971 FILLER_37_49
*3972 FILLER_37_56
*3973 FILLER_37_61
*3974 FILLER_37_69
*3975 FILLER_37_77
*3976 FILLER_37_79
*3977 FILLER_37_88
*3978 FILLER_37_116
*3979 FILLER_37_121
*3980 FILLER_37_129
*3981 FILLER_37_137
*3982 FILLER_37_139
*3983 FILLER_37_145
*3984 FILLER_37_173
*3985 FILLER_37_177
*3986 FILLER_37_179
*3987 FILLER_37_181
*3988 FILLER_37_189
*3989 FILLER_37_217
*3990 FILLER_37_225
*3991 FILLER_37_233
*3992 FILLER_37_237
*3993 FILLER_37_239
*3994 FILLER_37_241
*3995 FILLER_37_245
*3996 FILLER_37_247
*3997 FILLER_37_266
*3998 FILLER_37_294
*3999 FILLER_37_298
*4000 FILLER_37_301
*4001 FILLER_37_309
*4002 FILLER_37_334
*4003 FILLER_37_356
*4004 FILLER_37_361
*4005 FILLER_37_389
*4006 FILLER_38_3
*4007 FILLER_38_11
*4008 FILLER_38_19
*4009 FILLER_38_21
*4010 FILLER_38_26
*4011 FILLER_38_31
*4012 FILLER_38_39
*4013 FILLER_38_47
*4014 FILLER_38_55
*4015 FILLER_38_57
*4016 FILLER_38_82
*4017 FILLER_38_91
*4018 FILLER_38_99
*4019 FILLER_38_124
*4020 FILLER_38_132
*4021 FILLER_38_140
*4022 FILLER_38_148
*4023 FILLER_38_151
*4024 FILLER_38_159
*4025 FILLER_38_178
*4026 FILLER_38_186
*4027 FILLER_38_192
*4028 FILLER_38_201
*4029 FILLER_38_209
*4030 FILLER_38_211
*4031 FILLER_38_219
*4032 FILLER_38_227
*4033 FILLER_38_235
*4034 FILLER_38_260
*4035 FILLER_38_268
*4036 FILLER_38_271
*4037 FILLER_38_275
*4038 FILLER_38_277
*4039 FILLER_38_302
*4040 FILLER_38_317
*4041 FILLER_38_326
*4042 FILLER_38_331
*4043 FILLER_38_359
*4044 FILLER_38_387
*4045 FILLER_38_389
*4046 FILLER_39_3
*4047 FILLER_39_11
*4048 FILLER_39_31
*4049 FILLER_39_39
*4050 FILLER_39_47
*4051 FILLER_39_55
*4052 FILLER_39_59
*4053 FILLER_39_61
*4054 FILLER_39_81
*4055 FILLER_39_89
*4056 FILLER_39_93
*4057 FILLER_39_99
*4058 FILLER_39_116
*4059 FILLER_39_121
*4060 FILLER_39_129
*4061 FILLER_39_137
*4062 FILLER_39_141
*4063 FILLER_39_143
*4064 FILLER_39_168
*4065 FILLER_39_176
*4066 FILLER_39_181
*4067 FILLER_39_190
*4068 FILLER_39_199
*4069 FILLER_39_227
*4070 FILLER_39_235
*4071 FILLER_39_239
*4072 FILLER_39_241
*4073 FILLER_39_249
*4074 FILLER_39_257
*4075 FILLER_39_265
*4076 FILLER_39_267
*4077 FILLER_39_276
*4078 FILLER_39_285
*4079 FILLER_39_293
*4080 FILLER_39_297
*4081 FILLER_39_299
*4082 FILLER_39_301
*4083 FILLER_39_309
*4084 FILLER_39_311
*4085 FILLER_39_336
*4086 FILLER_39_340
*4087 FILLER_39_346
*4088 FILLER_39_355
*4089 FILLER_39_359
*4090 FILLER_39_361
*4091 FILLER_39_365
*4092 FILLER_39_385
*4093 FILLER_39_389
*4094 FILLER_40_3
*4095 FILLER_40_7
*4096 FILLER_40_9
*4097 FILLER_40_26
*4098 FILLER_40_31
*4099 FILLER_40_39
*4100 FILLER_40_47
*4101 FILLER_40_49
*4102 FILLER_40_74
*4103 FILLER_40_82
*4104 FILLER_40_91
*4105 FILLER_40_95
*4106 FILLER_40_97
*4107 FILLER_40_103
*4108 FILLER_40_111
*4109 FILLER_40_119
*4110 FILLER_40_127
*4111 FILLER_40_131
*4112 FILLER_40_137
*4113 FILLER_40_146
*4114 FILLER_40_151
*4115 FILLER_40_177
*4116 FILLER_40_181
*4117 FILLER_40_206
*4118 FILLER_40_211
*4119 FILLER_40_233
*4120 FILLER_40_241
*4121 FILLER_40_249
*4122 FILLER_40_257
*4123 FILLER_40_265
*4124 FILLER_40_269
*4125 FILLER_40_271
*4126 FILLER_40_279
*4127 FILLER_40_287
*4128 FILLER_40_306
*4129 FILLER_40_317
*4130 FILLER_40_326
*4131 FILLER_40_331
*4132 FILLER_40_339
*4133 FILLER_40_343
*4134 FILLER_40_350
*4135 FILLER_40_378
*4136 FILLER_40_386
*4137 FILLER_41_3
*4138 FILLER_41_11
*4139 FILLER_41_29
*4140 FILLER_41_37
*4141 FILLER_41_45
*4142 FILLER_41_49
*4143 FILLER_41_56
*4144 FILLER_41_61
*4145 FILLER_41_76
*4146 FILLER_41_84
*4147 FILLER_41_92
*4148 FILLER_41_105
*4149 FILLER_41_113
*4150 FILLER_41_117
*4151 FILLER_41_119
*4152 FILLER_41_121
*4153 FILLER_41_129
*4154 FILLER_41_137
*4155 FILLER_41_141
*4156 FILLER_41_148
*4157 FILLER_41_176
*4158 FILLER_41_181
*4159 FILLER_41_193
*4160 FILLER_41_197
*4161 FILLER_41_222
*4162 FILLER_41_234
*4163 FILLER_41_238
*4164 FILLER_41_241
*4165 FILLER_41_245
*4166 FILLER_41_252
*4167 FILLER_41_256
*4168 FILLER_41_258
*4169 FILLER_41_277
*4170 FILLER_41_285
*4171 FILLER_41_293
*4172 FILLER_41_297
*4173 FILLER_41_299
*4174 FILLER_41_301
*4175 FILLER_41_309
*4176 FILLER_41_317
*4177 FILLER_41_325
*4178 FILLER_41_333
*4179 FILLER_41_341
*4180 FILLER_41_349
*4181 FILLER_41_356
*4182 FILLER_41_361
*4183 FILLER_41_369
*4184 FILLER_41_377
*4185 FILLER_41_385
*4186 FILLER_41_389
*4187 FILLER_42_3
*4188 FILLER_42_11
*4189 FILLER_42_13
*4190 FILLER_42_18
*4191 FILLER_42_26
*4192 FILLER_42_31
*4193 FILLER_42_39
*4194 FILLER_42_47
*4195 FILLER_42_51
*4196 FILLER_42_58
*4197 FILLER_42_86
*4198 FILLER_42_91
*4199 FILLER_42_99
*4200 FILLER_42_101
*4201 FILLER_42_126
*4202 FILLER_42_134
*4203 FILLER_42_138
*4204 FILLER_42_140
*4205 FILLER_42_146
*4206 FILLER_42_151
*4207 FILLER_42_179
*4208 FILLER_42_187
*4209 FILLER_42_206
*4210 FILLER_42_211
*4211 FILLER_42_219
*4212 FILLER_42_227
*4213 FILLER_42_235
*4214 FILLER_42_239
*4215 FILLER_42_241
*4216 FILLER_42_266
*4217 FILLER_42_271
*4218 FILLER_42_279
*4219 FILLER_42_307
*4220 FILLER_42_315
*4221 FILLER_42_323
*4222 FILLER_42_327
*4223 FILLER_42_329
*4224 FILLER_42_331
*4225 FILLER_42_339
*4226 FILLER_42_347
*4227 FILLER_42_355
*4228 FILLER_42_363
*4229 FILLER_42_371
*4230 FILLER_42_379
*4231 FILLER_42_387
*4232 FILLER_42_389
*4233 FILLER_43_3
*4234 FILLER_43_11
*4235 FILLER_43_17
*4236 FILLER_43_25
*4237 FILLER_43_29
*4238 FILLER_43_31
*4239 FILLER_43_56
*4240 FILLER_43_61
*4241 FILLER_43_69
*4242 FILLER_43_88
*4243 FILLER_43_116
*4244 FILLER_43_121
*4245 FILLER_43_143
*4246 FILLER_43_147
*4247 FILLER_43_173
*4248 FILLER_43_177
*4249 FILLER_43_179
*4250 FILLER_43_181
*4251 FILLER_43_189
*4252 FILLER_43_214
*4253 FILLER_43_222
*4254 FILLER_43_230
*4255 FILLER_43_238
*4256 FILLER_43_241
*4257 FILLER_43_269
*4258 FILLER_43_277
*4259 FILLER_43_287
*4260 FILLER_43_295
*4261 FILLER_43_299
*4262 FILLER_43_301
*4263 FILLER_43_309
*4264 FILLER_43_317
*4265 FILLER_43_325
*4266 FILLER_43_327
*4267 FILLER_43_352
*4268 FILLER_43_361
*4269 FILLER_43_369
*4270 FILLER_43_377
*4271 FILLER_43_385
*4272 FILLER_43_389
*4273 FILLER_44_3
*4274 FILLER_44_7
*4275 FILLER_44_25
*4276 FILLER_44_29
*4277 FILLER_44_31
*4278 FILLER_44_39
*4279 FILLER_44_47
*4280 FILLER_44_49
*4281 FILLER_44_55
*4282 FILLER_44_83
*4283 FILLER_44_87
*4284 FILLER_44_89
*4285 FILLER_44_91
*4286 FILLER_44_104
*4287 FILLER_44_132
*4288 FILLER_44_140
*4289 FILLER_44_148
*4290 FILLER_44_151
*4291 FILLER_44_155
*4292 FILLER_44_169
*4293 FILLER_44_177
*4294 FILLER_44_185
*4295 FILLER_44_193
*4296 FILLER_44_206
*4297 FILLER_44_211
*4298 FILLER_44_219
*4299 FILLER_44_227
*4300 FILLER_44_229
*4301 FILLER_44_235
*4302 FILLER_44_263
*4303 FILLER_44_267
*4304 FILLER_44_269
*4305 FILLER_44_271
*4306 FILLER_44_299
*4307 FILLER_44_307
*4308 FILLER_44_315
*4309 FILLER_44_323
*4310 FILLER_44_327
*4311 FILLER_44_329
*4312 FILLER_44_331
*4313 FILLER_44_335
*4314 FILLER_44_354
*4315 FILLER_44_363
*4316 FILLER_44_385
*4317 FILLER_44_389
*4318 FILLER_45_3
*4319 FILLER_45_11
*4320 FILLER_45_15
*4321 FILLER_45_32
*4322 FILLER_45_40
*4323 FILLER_45_48
*4324 FILLER_45_50
*4325 FILLER_45_56
*4326 FILLER_45_61
*4327 FILLER_45_69
*4328 FILLER_45_77
*4329 FILLER_45_85
*4330 FILLER_45_87
*4331 FILLER_45_96
*4332 FILLER_45_100
*4333 FILLER_45_102
*4334 FILLER_45_108
*4335 FILLER_45_116
*4336 FILLER_45_121
*4337 FILLER_45_125
*4338 FILLER_45_138
*4339 FILLER_45_158
*4340 FILLER_45_171
*4341 FILLER_45_179
*4342 FILLER_45_181
*4343 FILLER_45_190
*4344 FILLER_45_199
*4345 FILLER_45_227
*4346 FILLER_45_235
*4347 FILLER_45_239
*4348 FILLER_45_241
*4349 FILLER_45_269
*4350 FILLER_45_277
*4351 FILLER_45_296
*4352 FILLER_45_301
*4353 FILLER_45_309
*4354 FILLER_45_311
*4355 FILLER_45_336
*4356 FILLER_45_344
*4357 FILLER_45_356
*4358 FILLER_45_361
*4359 FILLER_45_389
*4360 FILLER_46_3
*4361 FILLER_46_11
*4362 FILLER_46_26
*4363 FILLER_46_31
*4364 FILLER_46_39
*4365 FILLER_46_47
*4366 FILLER_46_79
*4367 FILLER_46_87
*4368 FILLER_46_89
*4369 FILLER_46_91
*4370 FILLER_46_99
*4371 FILLER_46_103
*4372 FILLER_46_105
*4373 FILLER_46_130
*4374 FILLER_46_134
*4375 FILLER_46_146
*4376 FILLER_46_151
*4377 FILLER_46_160
*4378 FILLER_46_168
*4379 FILLER_46_176
*4380 FILLER_46_180
*4381 FILLER_46_206
*4382 FILLER_46_211
*4383 FILLER_46_233
*4384 FILLER_46_246
*4385 FILLER_46_255
*4386 FILLER_46_259
*4387 FILLER_46_266
*4388 FILLER_46_271
*4389 FILLER_46_275
*4390 FILLER_46_301
*4391 FILLER_46_309
*4392 FILLER_46_316
*4393 FILLER_46_325
*4394 FILLER_46_329
*4395 FILLER_46_331
*4396 FILLER_46_359
*4397 FILLER_46_387
*4398 FILLER_46_389
*4399 FILLER_47_3
*4400 FILLER_47_11
*4401 FILLER_47_15
*4402 FILLER_47_33
*4403 FILLER_47_56
*4404 FILLER_47_61
*4405 FILLER_47_69
*4406 FILLER_47_77
*4407 FILLER_47_85
*4408 FILLER_47_93
*4409 FILLER_47_101
*4410 FILLER_47_109
*4411 FILLER_47_116
*4412 FILLER_47_121
*4413 FILLER_47_141
*4414 FILLER_47_169
*4415 FILLER_47_177
*4416 FILLER_47_179
*4417 FILLER_47_181
*4418 FILLER_47_189
*4419 FILLER_47_195
*4420 FILLER_47_223
*4421 FILLER_47_231
*4422 FILLER_47_239
*4423 FILLER_47_241
*4424 FILLER_47_249
*4425 FILLER_47_257
*4426 FILLER_47_265
*4427 FILLER_47_269
*4428 FILLER_47_271
*4429 FILLER_47_277
*4430 FILLER_47_286
*4431 FILLER_47_295
*4432 FILLER_47_299
*4433 FILLER_47_301
*4434 FILLER_47_309
*4435 FILLER_47_313
*4436 FILLER_47_339
*4437 FILLER_47_347
*4438 FILLER_47_356
*4439 FILLER_47_361
*4440 FILLER_47_389
*4441 FILLER_48_3
*4442 FILLER_48_11
*4443 FILLER_48_13
*4444 FILLER_48_18
*4445 FILLER_48_26
*4446 FILLER_48_31
*4447 FILLER_48_39
*4448 FILLER_48_43
*4449 FILLER_48_51
*4450 FILLER_48_66
*4451 FILLER_48_73
*4452 FILLER_48_77
*4453 FILLER_48_85
*4454 FILLER_48_89
*4455 FILLER_48_91
*4456 FILLER_48_99
*4457 FILLER_48_107
*4458 FILLER_48_111
*4459 FILLER_48_115
*4460 FILLER_48_124
*4461 FILLER_48_133
*4462 FILLER_48_146
*4463 FILLER_48_151
*4464 FILLER_48_179
*4465 FILLER_48_187
*4466 FILLER_48_195
*4467 FILLER_48_202
*4468 FILLER_48_211
*4469 FILLER_48_219
*4470 FILLER_48_227
*4471 FILLER_48_235
*4472 FILLER_48_243
*4473 FILLER_48_251
*4474 FILLER_48_259
*4475 FILLER_48_267
*4476 FILLER_48_269
*4477 FILLER_48_271
*4478 FILLER_48_279
*4479 FILLER_48_304
*4480 FILLER_48_312
*4481 FILLER_48_325
*4482 FILLER_48_329
*4483 FILLER_48_331
*4484 FILLER_48_339
*4485 FILLER_48_343
*4486 FILLER_48_345
*4487 FILLER_48_351
*4488 FILLER_48_379
*4489 FILLER_48_387
*4490 FILLER_48_389
*4491 FILLER_49_3
*4492 FILLER_49_11
*4493 FILLER_49_13
*4494 FILLER_49_18
*4495 FILLER_49_38
*4496 FILLER_49_42
*4497 FILLER_49_47
*4498 FILLER_49_55
*4499 FILLER_49_59
*4500 FILLER_49_61
*4501 FILLER_49_69
*4502 FILLER_49_71
*4503 FILLER_49_90
*4504 FILLER_49_98
*4505 FILLER_49_106
*4506 FILLER_49_110
*4507 FILLER_49_116
*4508 FILLER_49_121
*4509 FILLER_49_125
*4510 FILLER_49_143
*4511 FILLER_49_151
*4512 FILLER_49_176
*4513 FILLER_49_181
*4514 FILLER_49_189
*4515 FILLER_49_197
*4516 FILLER_49_212
*4517 FILLER_49_236
*4518 FILLER_49_241
*4519 FILLER_49_249
*4520 FILLER_49_257
*4521 FILLER_49_265
*4522 FILLER_49_273
*4523 FILLER_49_281
*4524 FILLER_49_289
*4525 FILLER_49_297
*4526 FILLER_49_299
*4527 FILLER_49_301
*4528 FILLER_49_309
*4529 FILLER_49_317
*4530 FILLER_49_325
*4531 FILLER_49_332
*4532 FILLER_49_340
*4533 FILLER_49_348
*4534 FILLER_49_356
*4535 FILLER_49_361
*4536 FILLER_49_369
*4537 FILLER_49_377
*4538 FILLER_49_385
*4539 FILLER_49_389
*4540 FILLER_50_3
*4541 FILLER_50_7
*4542 FILLER_50_9
*4543 FILLER_50_26
*4544 FILLER_50_31
*4545 FILLER_50_39
*4546 FILLER_50_47
*4547 FILLER_50_49
*4548 FILLER_50_66
*4549 FILLER_50_86
*4550 FILLER_50_91
*4551 FILLER_50_113
*4552 FILLER_50_126
*4553 FILLER_50_146
*4554 FILLER_50_151
*4555 FILLER_50_159
*4556 FILLER_50_181
*4557 FILLER_50_189
*4558 FILLER_50_197
*4559 FILLER_50_205
*4560 FILLER_50_209
*4561 FILLER_50_211
*4562 FILLER_50_219
*4563 FILLER_50_227
*4564 FILLER_50_231
*4565 FILLER_50_256
*4566 FILLER_50_264
*4567 FILLER_50_268
*4568 FILLER_50_271
*4569 FILLER_50_279
*4570 FILLER_50_287
*4571 FILLER_50_295
*4572 FILLER_50_303
*4573 FILLER_50_311
*4574 FILLER_50_319
*4575 FILLER_50_327
*4576 FILLER_50_329
*4577 FILLER_50_331
*4578 FILLER_50_339
*4579 FILLER_50_347
*4580 FILLER_50_355
*4581 FILLER_50_357
*4582 FILLER_50_363
*4583 FILLER_50_371
*4584 FILLER_50_379
*4585 FILLER_50_387
*4586 FILLER_50_389
*4587 FILLER_51_3
*4588 FILLER_51_7
*4589 FILLER_51_25
*4590 FILLER_51_33
*4591 FILLER_51_41
*4592 FILLER_51_54
*4593 FILLER_51_58
*4594 FILLER_51_61
*4595 FILLER_51_69
*4596 FILLER_51_78
*4597 FILLER_51_100
*4598 FILLER_51_108
*4599 FILLER_51_116
*4600 FILLER_51_121
*4601 FILLER_51_125
*4602 FILLER_51_143
*4603 FILLER_51_171
*4604 FILLER_51_179
*4605 FILLER_51_181
*4606 FILLER_51_194
*4607 FILLER_51_220
*4608 FILLER_51_233
*4609 FILLER_51_237
*4610 FILLER_51_239
*4611 FILLER_51_241
*4612 FILLER_51_263
*4613 FILLER_51_291
*4614 FILLER_51_299
*4615 FILLER_51_301
*4616 FILLER_51_309
*4617 FILLER_51_334
*4618 FILLER_51_342
*4619 FILLER_51_350
*4620 FILLER_51_358
*4621 FILLER_51_361
*4622 FILLER_51_369
*4623 FILLER_51_377
*4624 FILLER_51_385
*4625 FILLER_51_389
*4626 FILLER_52_3
*4627 FILLER_52_7
*4628 FILLER_52_25
*4629 FILLER_52_29
*4630 FILLER_52_31
*4631 FILLER_52_51
*4632 FILLER_52_59
*4633 FILLER_52_63
*4634 FILLER_52_80
*4635 FILLER_52_88
*4636 FILLER_52_91
*4637 FILLER_52_99
*4638 FILLER_52_120
*4639 FILLER_52_146
*4640 FILLER_52_151
*4641 FILLER_52_159
*4642 FILLER_52_167
*4643 FILLER_52_176
*4644 FILLER_52_180
*4645 FILLER_52_187
*4646 FILLER_52_196
*4647 FILLER_52_204
*4648 FILLER_52_208
*4649 FILLER_52_211
*4650 FILLER_52_219
*4651 FILLER_52_221
*4652 FILLER_52_246
*4653 FILLER_52_250
*4654 FILLER_52_260
*4655 FILLER_52_268
*4656 FILLER_52_271
*4657 FILLER_52_280
*4658 FILLER_52_284
*4659 FILLER_52_294
*4660 FILLER_52_307
*4661 FILLER_52_316
*4662 FILLER_52_324
*4663 FILLER_52_328
*4664 FILLER_52_331
*4665 FILLER_52_335
*4666 FILLER_52_361
*4667 FILLER_52_369
*4668 FILLER_52_377
*4669 FILLER_52_385
*4670 FILLER_52_389
*4671 FILLER_53_3
*4672 FILLER_53_7
*4673 FILLER_53_25
*4674 FILLER_53_33
*4675 FILLER_53_41
*4676 FILLER_53_49
*4677 FILLER_53_56
*4678 FILLER_53_61
*4679 FILLER_53_70
*4680 FILLER_53_74
*4681 FILLER_53_91
*4682 FILLER_53_102
*4683 FILLER_53_110
*4684 FILLER_53_112
*4685 FILLER_53_116
*4686 FILLER_53_121
*4687 FILLER_53_125
*4688 FILLER_53_131
*4689 FILLER_53_140
*4690 FILLER_53_168
*4691 FILLER_53_176
*4692 FILLER_53_181
*4693 FILLER_53_189
*4694 FILLER_53_217
*4695 FILLER_53_221
*4696 FILLER_53_227
*4697 FILLER_53_236
*4698 FILLER_53_241
*4699 FILLER_53_269
*4700 FILLER_53_277
*4701 FILLER_53_296
*4702 FILLER_53_301
*4703 FILLER_53_329
*4704 FILLER_53_333
*4705 FILLER_53_343
*4706 FILLER_53_347
*4707 FILLER_53_349
*4708 FILLER_53_355
*4709 FILLER_53_359
*4710 FILLER_53_361
*4711 FILLER_53_389
*4712 FILLER_54_3
*4713 FILLER_54_11
*4714 FILLER_54_16
*4715 FILLER_54_24
*4716 FILLER_54_28
*4717 FILLER_54_31
*4718 FILLER_54_39
*4719 FILLER_54_41
*4720 FILLER_54_58
*4721 FILLER_54_62
*4722 FILLER_54_64
*4723 FILLER_54_81
*4724 FILLER_54_89
*4725 FILLER_54_91
*4726 FILLER_54_99
*4727 FILLER_54_107
*4728 FILLER_54_115
*4729 FILLER_54_119
*4730 FILLER_54_121
*4731 FILLER_54_146
*4732 FILLER_54_151
*4733 FILLER_54_173
*4734 FILLER_54_181
*4735 FILLER_54_206
*4736 FILLER_54_211
*4737 FILLER_54_219
*4738 FILLER_54_223
*4739 FILLER_54_249
*4740 FILLER_54_257
*4741 FILLER_54_263
*4742 FILLER_54_267
*4743 FILLER_54_269
*4744 FILLER_54_271
*4745 FILLER_54_299
*4746 FILLER_54_307
*4747 FILLER_54_326
*4748 FILLER_54_331
*4749 FILLER_54_339
*4750 FILLER_54_341
*4751 FILLER_54_366
*4752 FILLER_54_388
*4753 FILLER_55_3
*4754 FILLER_55_11
*4755 FILLER_55_19
*4756 FILLER_55_24
*4757 FILLER_55_28
*4758 FILLER_55_34
*4759 FILLER_55_42
*4760 FILLER_55_50
*4761 FILLER_55_58
*4762 FILLER_55_61
*4763 FILLER_55_72
*4764 FILLER_55_85
*4765 FILLER_55_93
*4766 FILLER_55_95
*4767 FILLER_55_99
*4768 FILLER_55_103
*4769 FILLER_55_109
*4770 FILLER_55_117
*4771 FILLER_55_119
*4772 FILLER_55_121
*4773 FILLER_55_129
*4774 FILLER_55_135
*4775 FILLER_55_163
*4776 FILLER_55_176
*4777 FILLER_55_181
*4778 FILLER_55_189
*4779 FILLER_55_214
*4780 FILLER_55_226
*4781 FILLER_55_235
*4782 FILLER_55_239
*4783 FILLER_55_241
*4784 FILLER_55_249
*4785 FILLER_55_257
*4786 FILLER_55_283
*4787 FILLER_55_287
*4788 FILLER_55_296
*4789 FILLER_55_301
*4790 FILLER_55_329
*4791 FILLER_55_338
*4792 FILLER_55_346
*4793 FILLER_55_350
*4794 FILLER_55_356
*4795 FILLER_55_361
*4796 FILLER_55_369
*4797 FILLER_55_371
*4798 FILLER_55_380
*4799 FILLER_55_388
*4800 FILLER_56_3
*4801 FILLER_56_11
*4802 FILLER_56_19
*4803 FILLER_56_27
*4804 FILLER_56_29
*4805 FILLER_56_31
*4806 FILLER_56_40
*4807 FILLER_56_48
*4808 FILLER_56_56
*4809 FILLER_56_60
*4810 FILLER_56_77
*4811 FILLER_56_86
*4812 FILLER_56_91
*4813 FILLER_56_99
*4814 FILLER_56_108
*4815 FILLER_56_112
*4816 FILLER_56_116
*4817 FILLER_56_124
*4818 FILLER_56_133
*4819 FILLER_56_146
*4820 FILLER_56_151
*4821 FILLER_56_155
*4822 FILLER_56_159
*4823 FILLER_56_166
*4824 FILLER_56_174
*4825 FILLER_56_206
*4826 FILLER_56_211
*4827 FILLER_56_219
*4828 FILLER_56_227
*4829 FILLER_56_235
*4830 FILLER_56_243
*4831 FILLER_56_251
*4832 FILLER_56_259
*4833 FILLER_56_266
*4834 FILLER_56_271
*4835 FILLER_56_299
*4836 FILLER_56_303
*4837 FILLER_56_310
*4838 FILLER_56_325
*4839 FILLER_56_329
*4840 FILLER_56_331
*4841 FILLER_56_340
*4842 FILLER_56_348
*4843 FILLER_56_352
*4844 FILLER_56_377
*4845 FILLER_56_385
*4846 FILLER_56_389
*4847 FILLER_57_3
*4848 FILLER_57_11
*4849 FILLER_57_19
*4850 FILLER_57_23
*4851 FILLER_57_31
*4852 FILLER_57_42
*4853 FILLER_57_50
*4854 FILLER_57_58
*4855 FILLER_57_61
*4856 FILLER_57_84
*4857 FILLER_57_93
*4858 FILLER_57_116
*4859 FILLER_57_121
*4860 FILLER_57_125
*4861 FILLER_57_127
*4862 FILLER_57_152
*4863 FILLER_57_163
*4864 FILLER_57_170
*4865 FILLER_57_178
*4866 FILLER_57_181
*4867 FILLER_57_189
*4868 FILLER_57_197
*4869 FILLER_57_205
*4870 FILLER_57_213
*4871 FILLER_57_221
*4872 FILLER_57_229
*4873 FILLER_57_237
*4874 FILLER_57_239
*4875 FILLER_57_241
*4876 FILLER_57_249
*4877 FILLER_57_257
*4878 FILLER_57_270
*4879 FILLER_57_274
*4880 FILLER_57_280
*4881 FILLER_57_288
*4882 FILLER_57_296
*4883 FILLER_57_301
*4884 FILLER_57_309
*4885 FILLER_57_313
*4886 FILLER_57_338
*4887 FILLER_57_346
*4888 FILLER_57_354
*4889 FILLER_57_358
*4890 FILLER_57_361
*4891 FILLER_57_369
*4892 FILLER_57_377
*4893 FILLER_57_385
*4894 FILLER_57_389
*4895 FILLER_58_3
*4896 FILLER_58_11
*4897 FILLER_58_19
*4898 FILLER_58_21
*4899 FILLER_58_26
*4900 FILLER_58_31
*4901 FILLER_58_35
*4902 FILLER_58_41
*4903 FILLER_58_48
*4904 FILLER_58_52
*4905 FILLER_58_54
*4906 FILLER_58_64
*4907 FILLER_58_77
*4908 FILLER_58_86
*4909 FILLER_58_91
*4910 FILLER_58_101
*4911 FILLER_58_124
*4912 FILLER_58_132
*4913 FILLER_58_146
*4914 FILLER_58_151
*4915 FILLER_58_155
*4916 FILLER_58_169
*4917 FILLER_58_182
*4918 FILLER_58_190
*4919 FILLER_58_196
*4920 FILLER_58_204
*4921 FILLER_58_208
*4922 FILLER_58_211
*4923 FILLER_58_219
*4924 FILLER_58_227
*4925 FILLER_58_259
*4926 FILLER_58_267
*4927 FILLER_58_269
*4928 FILLER_58_271
*4929 FILLER_58_275
*4930 FILLER_58_277
*4931 FILLER_58_284
*4932 FILLER_58_292
*4933 FILLER_58_300
*4934 FILLER_58_308
*4935 FILLER_58_312
*4936 FILLER_58_319
*4937 FILLER_58_327
*4938 FILLER_58_329
*4939 FILLER_58_331
*4940 FILLER_58_339
*4941 FILLER_58_347
*4942 FILLER_58_355
*4943 FILLER_58_357
*4944 FILLER_58_382
*4945 FILLER_59_3
*4946 FILLER_59_11
*4947 FILLER_59_26
*4948 FILLER_59_50
*4949 FILLER_59_58
*4950 FILLER_59_61
*4951 FILLER_59_69
*4952 FILLER_59_85
*4953 FILLER_59_94
*4954 FILLER_59_98
*4955 FILLER_59_115
*4956 FILLER_59_119
*4957 FILLER_59_121
*4958 FILLER_59_134
*4959 FILLER_59_138
*4960 FILLER_59_156
*4961 FILLER_59_176
*4962 FILLER_59_181
*4963 FILLER_59_185
*4964 FILLER_59_187
*4965 FILLER_59_212
*4966 FILLER_59_220
*4967 FILLER_59_228
*4968 FILLER_59_230
*4969 FILLER_59_236
*4970 FILLER_59_241
*4971 FILLER_59_249
*4972 FILLER_59_257
*4973 FILLER_59_265
*4974 FILLER_59_290
*4975 FILLER_59_298
*4976 FILLER_59_301
*4977 FILLER_59_309
*4978 FILLER_59_311
*4979 FILLER_59_336
*4980 FILLER_59_344
*4981 FILLER_59_348
*4982 FILLER_59_354
*4983 FILLER_59_358
*4984 FILLER_59_361
*4985 FILLER_59_365
*4986 FILLER_59_384
*4987 FILLER_59_388
*4988 FILLER_60_3
*4989 FILLER_60_7
*4990 FILLER_60_9
*4991 FILLER_60_15
*4992 FILLER_60_26
*4993 FILLER_60_31
*4994 FILLER_60_42
*4995 FILLER_60_49
*4996 FILLER_60_57
*4997 FILLER_60_63
*4998 FILLER_60_86
*4999 FILLER_60_91
*5000 FILLER_60_95
*5001 FILLER_60_100
*5002 FILLER_60_111
*5003 FILLER_60_126
*5004 FILLER_60_133
*5005 FILLER_60_146
*5006 FILLER_60_151
*5007 FILLER_60_155
*5008 FILLER_60_179
*5009 FILLER_60_187
*5010 FILLER_60_206
*5011 FILLER_60_211
*5012 FILLER_60_219
*5013 FILLER_60_223
*5014 FILLER_60_248
*5015 FILLER_60_257
*5016 FILLER_60_266
*5017 FILLER_60_271
*5018 FILLER_60_299
*5019 FILLER_60_303
*5020 FILLER_60_310
*5021 FILLER_60_319
*5022 FILLER_60_327
*5023 FILLER_60_329
*5024 FILLER_60_331
*5025 FILLER_60_344
*5026 FILLER_60_372
*5027 FILLER_60_380
*5028 FILLER_60_388
*5029 FILLER_61_3
*5030 FILLER_61_7
*5031 FILLER_61_25
*5032 FILLER_61_45
*5033 FILLER_61_54
*5034 FILLER_61_58
*5035 FILLER_61_61
*5036 FILLER_61_83
*5037 FILLER_61_103
*5038 FILLER_61_112
*5039 FILLER_61_121
*5040 FILLER_61_125
*5041 FILLER_61_134
*5042 FILLER_61_154
*5043 FILLER_61_174
*5044 FILLER_61_178
*5045 FILLER_61_181
*5046 FILLER_61_189
*5047 FILLER_61_191
*5048 FILLER_61_216
*5049 FILLER_61_220
*5050 FILLER_61_222
*5051 FILLER_61_228
*5052 FILLER_61_236
*5053 FILLER_61_241
*5054 FILLER_61_269
*5055 FILLER_61_277
*5056 FILLER_61_296
*5057 FILLER_61_301
*5058 FILLER_61_329
*5059 FILLER_61_351
*5060 FILLER_61_359
*5061 FILLER_61_361
*5062 FILLER_61_389
*5063 FILLER_62_3
*5064 FILLER_62_7
*5065 FILLER_62_9
*5066 FILLER_62_26
*5067 FILLER_62_31
*5068 FILLER_62_41
*5069 FILLER_62_52
*5070 FILLER_62_75
*5071 FILLER_62_79
*5072 FILLER_62_86
*5073 FILLER_62_91
*5074 FILLER_62_106
*5075 FILLER_62_110
*5076 FILLER_62_127
*5077 FILLER_62_135
*5078 FILLER_62_145
*5079 FILLER_62_149
*5080 FILLER_62_151
*5081 FILLER_62_171
*5082 FILLER_62_178
*5083 FILLER_62_206
*5084 FILLER_62_211
*5085 FILLER_62_219
*5086 FILLER_62_227
*5087 FILLER_62_252
*5088 FILLER_62_260
*5089 FILLER_62_266
*5090 FILLER_62_271
*5091 FILLER_62_299
*5092 FILLER_62_312
*5093 FILLER_62_321
*5094 FILLER_62_329
*5095 FILLER_62_331
*5096 FILLER_62_359
*5097 FILLER_62_387
*5098 FILLER_62_389
*5099 FILLER_63_3
*5100 FILLER_63_11
*5101 FILLER_63_17
*5102 FILLER_63_37
*5103 FILLER_63_52
*5104 FILLER_63_61
*5105 FILLER_63_72
*5106 FILLER_63_80
*5107 FILLER_63_104
*5108 FILLER_63_108
*5109 FILLER_63_110
*5110 FILLER_63_116
*5111 FILLER_63_121
*5112 FILLER_63_129
*5113 FILLER_63_146
*5114 FILLER_63_166
*5115 FILLER_63_170
*5116 FILLER_63_176
*5117 FILLER_63_181
*5118 FILLER_63_189
*5119 FILLER_63_215
*5120 FILLER_63_223
*5121 FILLER_63_232
*5122 FILLER_63_241
*5123 FILLER_63_249
*5124 FILLER_63_257
*5125 FILLER_63_261
*5126 FILLER_63_287
*5127 FILLER_63_295
*5128 FILLER_63_299
*5129 FILLER_63_301
*5130 FILLER_63_305
*5131 FILLER_63_307
*5132 FILLER_63_332
*5133 FILLER_63_340
*5134 FILLER_63_344
*5135 FILLER_63_346
*5136 FILLER_63_352
*5137 FILLER_63_361
*5138 FILLER_63_369
*5139 FILLER_63_377
*5140 FILLER_63_385
*5141 FILLER_63_389
*5142 FILLER_64_3
*5143 FILLER_64_11
*5144 FILLER_64_13
*5145 FILLER_64_18
*5146 FILLER_64_26
*5147 FILLER_64_31
*5148 FILLER_64_39
*5149 FILLER_64_47
*5150 FILLER_64_69
*5151 FILLER_64_77
*5152 FILLER_64_85
*5153 FILLER_64_89
*5154 FILLER_64_91
*5155 FILLER_64_99
*5156 FILLER_64_105
*5157 FILLER_64_125
*5158 FILLER_64_129
*5159 FILLER_64_131
*5160 FILLER_64_137
*5161 FILLER_64_146
*5162 FILLER_64_151
*5163 FILLER_64_171
*5164 FILLER_64_184
*5165 FILLER_64_188
*5166 FILLER_64_194
*5167 FILLER_64_202
*5168 FILLER_64_211
*5169 FILLER_64_219
*5170 FILLER_64_227
*5171 FILLER_64_231
*5172 FILLER_64_238
*5173 FILLER_64_242
*5174 FILLER_64_261
*5175 FILLER_64_269
*5176 FILLER_64_271
*5177 FILLER_64_279
*5178 FILLER_64_287
*5179 FILLER_64_295
*5180 FILLER_64_303
*5181 FILLER_64_311
*5182 FILLER_64_319
*5183 FILLER_64_327
*5184 FILLER_64_329
*5185 FILLER_64_331
*5186 FILLER_64_339
*5187 FILLER_64_347
*5188 FILLER_64_351
*5189 FILLER_64_357
*5190 FILLER_64_365
*5191 FILLER_64_373
*5192 FILLER_64_381
*5193 FILLER_64_389
*5194 FILLER_65_3
*5195 FILLER_65_11
*5196 FILLER_65_19
*5197 FILLER_65_26
*5198 FILLER_65_31
*5199 FILLER_65_39
*5200 FILLER_65_47
*5201 FILLER_65_55
*5202 FILLER_65_59
*5203 FILLER_65_61
*5204 FILLER_65_69
*5205 FILLER_65_77
*5206 FILLER_65_85
*5207 FILLER_65_89
*5208 FILLER_65_91
*5209 FILLER_65_100
*5210 FILLER_65_108
*5211 FILLER_65_116
*5212 FILLER_65_121
*5213 FILLER_65_128
*5214 FILLER_65_137
*5215 FILLER_65_146
*5216 FILLER_65_151
*5217 FILLER_65_159
*5218 FILLER_65_169
*5219 FILLER_65_176
*5220 FILLER_65_181
*5221 FILLER_65_189
*5222 FILLER_65_197
*5223 FILLER_65_205
*5224 FILLER_65_209
*5225 FILLER_65_211
*5226 FILLER_65_219
*5227 FILLER_65_227
*5228 FILLER_65_235
*5229 FILLER_65_239
*5230 FILLER_65_241
*5231 FILLER_65_249
*5232 FILLER_65_257
*5233 FILLER_65_265
*5234 FILLER_65_269
*5235 FILLER_65_271
*5236 FILLER_65_279
*5237 FILLER_65_287
*5238 FILLER_65_295
*5239 FILLER_65_299
*5240 FILLER_65_301
*5241 FILLER_65_309
*5242 FILLER_65_317
*5243 FILLER_65_325
*5244 FILLER_65_329
*5245 FILLER_65_331
*5246 FILLER_65_339
*5247 FILLER_65_347
*5248 FILLER_65_355
*5249 FILLER_65_359
*5250 FILLER_65_361
*5251 FILLER_65_369
*5252 FILLER_65_377
*5253 FILLER_65_385
*5254 FILLER_65_389

*PORTS
data_in[0] I
data_in[10] I
data_in[11] I
data_in[12] I
data_in[13] I
data_in[14] I
data_in[15] I
data_in[16] I
data_in[17] I
data_in[18] I
data_in[19] I
data_in[1] I
data_in[20] I
data_in[21] I
data_in[22] I
data_in[23] I
data_in[24] I
data_in[25] I
data_in[26] I
data_in[27] I
data_in[28] I
data_in[29] I
data_in[2] I
data_in[30] I
data_in[31] I
data_in[3] I
data_in[4] I
data_in[5] I
data_in[6] I
data_in[7] I
data_in[8] I
data_in[9] I
data_out[0] O
data_out[10] O
data_out[11] O
data_out[12] O
data_out[13] O
data_out[14] O
data_out[15] O
data_out[16] O
data_out[17] O
data_out[18] O
data_out[19] O
data_out[1] O
data_out[20] O
data_out[21] O
data_out[22] O
data_out[23] O
data_out[24] O
data_out[25] O
data_out[26] O
data_out[27] O
data_out[28] O
data_out[29] O
data_out[2] O
data_out[30] O
data_out[31] O
data_out[3] O
data_out[4] O
data_out[5] O
data_out[6] O
data_out[7] O
data_out[8] O
data_out[9] O
empty O
full O
rclk I
rd_en I
rrst_n I
wclk I
wrst_n I
wtr_en I

*D_NET *1 0.0085966
*CONN
*P data_in[0] I
*I *972:A I *D sky130_fd_sc_hd__and3_1
*I *1293:A I *D sky130_fd_sc_hd__and3_1
*I *1325:A I *D sky130_fd_sc_hd__and3_1
*I *1229:A I *D sky130_fd_sc_hd__and3_1
*I *1261:A I *D sky130_fd_sc_hd__and3_1
*I *1357:A I *D sky130_fd_sc_hd__and2_0
*I *1165:A I *D sky130_fd_sc_hd__and3_1
*I *1197:A I *D sky130_fd_sc_hd__and2_0
*CAP
1 data_in[0] 0.000990335
2 *972:A 4.17567e-05
3 *1293:A 0.000193292
4 *1325:A 0.000109937
5 *1229:A 0
6 *1261:A 0
7 *1357:A 0.000130274
8 *1165:A 0.000229715
9 *1197:A 0
10 *1:68 0.000373459
11 *1:59 0.000221164
12 *1:55 0.000300723
13 *1:48 0.000428722
14 *1:33 0.000561639
15 *1:22 0.000386047
16 *1:13 0.00103599
17 *972:A *972:C 6.50727e-05
18 *972:A *862:80 0.000164843
19 *1165:A *1453:D 6.46815e-05
20 *1165:A *1485:D 9.18559e-06
21 *1165:A *418:249 0.000110458
22 *1293:A *1229:C 2.91001e-05
23 *1293:A *1325:B 9.19632e-06
24 *1293:A *876:261 5.70863e-05
25 *1293:A *891:39 0.000193478
26 *1325:A *1325:C 2.23105e-05
27 *1325:A *1613:D 0.000118166
28 *1325:A *856:187 0.000324151
29 *1357:A *1357:B 0.000114594
30 *1357:A *1453:DE 9.0845e-05
31 *1357:A *1470:DE 0.000120812
32 *1357:A *865:289 0.000405176
33 *1:13 *1549:CLK 0.000200236
34 *1:13 *1549:D 5.62332e-05
35 *1:13 *891:74 6.31809e-05
36 *1:13 *891:103 0.000144546
37 *1:22 *1549:DE 0
38 *1:22 *891:74 3.40886e-05
39 *1:33 *891:74 6.86761e-05
40 *1:48 *1549:D 8.06561e-05
41 *1:48 *858:497 5.40636e-05
42 *1:48 *862:80 0.000266846
43 *1:48 *891:74 3.00174e-06
44 *1:48 *905:72 0
45 *1:55 *1261:C 2.23105e-05
46 *1:55 *862:80 0.000319954
47 *1:59 *972:C 3.92275e-05
48 *1:59 *1613:D 0.000190042
49 *1:59 *866:84 0
50 *1:59 *866:88 2.68066e-05
51 *1:59 *876:261 0
52 *1:59 *891:56 0
53 *1:68 *1229:C 3.92275e-05
54 *1:68 *1613:D 8.52968e-05
55 *1:68 *876:261 0
56 *1:68 *891:56 0
*RES
1 data_in[0] *1:13 21.9098 
2 *1:13 *1197:A 13.7491 
3 *1:13 *1:22 1.41674 
4 *1:22 *1165:A 18.9094 
5 *1:22 *1:33 3.07775 
6 *1:33 *1357:A 20.5732 
7 *1:33 *1:48 13.4263 
8 *1:48 *1261:A 9.24915 
9 *1:48 *1:55 3.49641 
10 *1:55 *1:59 9.23876 
11 *1:59 *1229:A 13.7491 
12 *1:59 *1:68 2.24725 
13 *1:68 *1325:A 17.8002 
14 *1:68 *1293:A 19.7659 
15 *1:55 *972:A 11.0817 
*END

*D_NET *2 0.0127215
*CONN
*P data_in[10] I
*I *1303:A I *D sky130_fd_sc_hd__and3_1
*I *1335:A I *D sky130_fd_sc_hd__and3_1
*I *1175:A I *D sky130_fd_sc_hd__and3_1
*I *1271:A I *D sky130_fd_sc_hd__and3_1
*I *1207:A I *D sky130_fd_sc_hd__and2_0
*I *1367:A I *D sky130_fd_sc_hd__and2_0
*I *982:A I *D sky130_fd_sc_hd__and3_1
*I *1239:A I *D sky130_fd_sc_hd__and3_1
*CAP
1 data_in[10] 0.00138264
2 *1303:A 0.00022197
3 *1335:A 0
4 *1175:A 0.000263581
5 *1271:A 0
6 *1207:A 3.07124e-05
7 *1367:A 8.35384e-05
8 *982:A 0
9 *1239:A 0.000110548
10 *2:87 0.000353555
11 *2:67 0.000430016
12 *2:45 0.000212996
13 *2:43 0.00130699
14 *2:28 0.00114048
15 *2:13 0.00032081
16 *2:11 0.00162581
17 *1175:A *1057:A1 4.43579e-05
18 *1175:A *69:41 0
19 *1175:A *70:34 1.6989e-05
20 *1175:A *127:20 8.82524e-05
21 *1175:A *424:51 6.54619e-05
22 *1175:A *884:354 3.12828e-05
23 *1207:A *1207:B 6.08467e-05
24 *1239:A *1527:D 0.000126009
25 *1239:A *873:30 6.12686e-06
26 *1303:A *417:92 1.95129e-05
27 *1367:A *1655:DE 5.21744e-05
28 *1367:A *856:22 6.46815e-05
29 *1367:A *884:339 0.000116786
30 *2:11 data_out[31] 0
31 *2:11 data_out[3] 0.000848984
32 *2:11 *1059:A2 0.00200774
33 *2:11 *445:18 0
34 *2:13 *1527:D 0.000208571
35 *2:43 *982:C 6.24314e-05
36 *2:43 *1056:A0 7.32024e-06
37 *2:43 *1399:D 0.000272242
38 *2:43 *1399:DE 3.39728e-05
39 *2:43 *419:18 0.000257722
40 *2:43 *419:22 3.82228e-05
41 *2:45 *1655:DE 8.40449e-05
42 *2:45 *884:339 0.000208518
43 *2:67 *1655:DE 9.34206e-05
44 *2:67 *69:41 0
45 *2:67 *884:339 8.62625e-06
46 *2:67 *884:354 0.000343384
47 *2:87 *1335:C 3.13679e-05
48 *2:87 *1527:D 3.88213e-05
*RES
1 data_in[10] *2:11 9.07562 
2 *2:11 *2:13 3.70063 
3 *2:13 *1239:A 16.7198 
4 *2:13 *2:28 6.3326 
5 *2:28 *982:A 9.24915 
6 *2:28 *2:43 31.9167 
7 *2:43 *2:45 3.90826 
8 *2:45 *1367:A 16.7198 
9 *2:45 *1207:A 14.4725 
10 *2:43 *2:67 6.39977 
11 *2:67 *1271:A 13.7491 
12 *2:67 *1175:A 20.8751 
13 *2:11 *2:87 3.28538 
14 *2:87 *1335:A 13.7491 
15 *2:87 *1303:A 19.2113 
*END

*D_NET *3 0.0119294
*CONN
*P data_in[11] I
*I *1176:A I *D sky130_fd_sc_hd__and3_1
*I *1368:A I *D sky130_fd_sc_hd__and2_0
*I *1272:A I *D sky130_fd_sc_hd__and3_1
*I *1208:A I *D sky130_fd_sc_hd__and2_0
*I *983:A I *D sky130_fd_sc_hd__and3_1
*I *1336:A I *D sky130_fd_sc_hd__and3_1
*I *1240:A I *D sky130_fd_sc_hd__and3_1
*I *1304:A I *D sky130_fd_sc_hd__and3_1
*CAP
1 data_in[11] 0.00269051
2 *1176:A 5.74528e-05
3 *1368:A 0.000129935
4 *1272:A 0
5 *1208:A 0.000140082
6 *983:A 0
7 *1336:A 0.000143946
8 *1240:A 1.41955e-05
9 *1304:A 0.000114943
10 *3:77 0.000257843
11 *3:66 0.000118055
12 *3:55 0.000676891
13 *3:34 0.000253245
14 *3:19 0.000315408
15 *3:15 0.000105362
16 *3:13 0.00317972
17 *1176:A *1176:C 6.27782e-05
18 *1176:A *423:157 6.55265e-05
19 *1208:A *1185:B 1.88563e-05
20 *1208:A *1272:B 0.000206718
21 *1208:A *418:194 6.46815e-05
22 *1208:A *418:207 0.000339378
23 *1240:A *874:354 2.58616e-05
24 *1240:A *875:118 6.27718e-05
25 *1304:A *1304:C 6.89596e-05
26 *1304:A *1496:DE 5.33721e-05
27 *1336:A *874:354 0.000167929
28 *1336:A *875:112 0.000103737
29 *1336:A *875:118 5.72048e-05
30 *1368:A *1656:D 0.000208621
31 *1368:A *423:146 3.03791e-05
32 *1368:A *423:157 8.43875e-05
33 *3:13 *15:17 0.000266822
34 *3:13 *874:354 0
35 *3:13 *896:61 0.000182281
36 *3:19 *1496:DE 0.000113909
37 *3:34 *874:354 4.65768e-05
38 *3:34 *875:112 5.46384e-06
39 *3:55 *1496:DE 0.000696301
40 *3:55 *867:61 0
41 *3:55 *874:344 0.000156386
42 *3:55 *875:112 0.00040555
43 *3:66 *874:338 2.06598e-05
44 *3:66 *874:344 4.68411e-05
45 *3:66 *875:112 2.06756e-05
46 *3:77 *874:338 0.000113871
47 *3:77 *875:112 3.53606e-05
*RES
1 data_in[11] *3:13 13.0977 
2 *3:13 *3:15 4.5 
3 *3:15 *3:19 3.52053 
4 *3:19 *1304:A 12.2151 
5 *3:19 *3:34 11.6625 
6 *3:34 *1240:A 9.97254 
7 *3:34 *1336:A 13.8548 
8 *3:15 *983:A 9.24915 
9 *3:13 *3:55 18.8573 
10 *3:55 *1208:A 18.9094 
11 *3:55 *3:66 1.41674 
12 *3:66 *1272:A 13.7491 
13 *3:66 *3:77 6.74725 
14 *3:77 *1368:A 13.7342 
15 *3:77 *1176:A 11.0817 
*END

*D_NET *4 0.0191282
*CONN
*P data_in[12] I
*I *1273:A I *D sky130_fd_sc_hd__and3_1
*I *1177:A I *D sky130_fd_sc_hd__and3_1
*I *1209:A I *D sky130_fd_sc_hd__and2_0
*I *1369:A I *D sky130_fd_sc_hd__and2_0
*I *984:A I *D sky130_fd_sc_hd__and3_1
*I *1305:A I *D sky130_fd_sc_hd__and3_1
*I *1337:A I *D sky130_fd_sc_hd__and3_1
*I *1241:A I *D sky130_fd_sc_hd__and3_1
*CAP
1 data_in[12] 0.00411998
2 *1273:A 0.000138428
3 *1177:A 0.000125772
4 *1209:A 5.34722e-05
5 *1369:A 0.000286064
6 *984:A 0
7 *1305:A 0.000187199
8 *1337:A 0.000260954
9 *1241:A 0
10 *4:86 0.000286309
11 *4:82 0.000529924
12 *4:36 0.00051302
13 *4:27 0.0015345
14 *4:17 0.00189813
15 *4:7 0.0008643
16 *4:5 0.00455415
17 *1177:A *418:449 0.000149643
18 *1177:A *874:737 5.20546e-06
19 *1273:A *1497:D 3.99086e-06
20 *1273:A *1498:DE 0.000113968
21 *1305:A *520:14 0
22 *1305:A *890:139 8.03117e-05
23 *1305:A *890:141 3.45997e-05
24 *1337:A *1337:C 0.000259016
25 *1337:A *874:326 6.91561e-06
26 *1369:A *1050:S0 0.000632036
27 *1369:A *1369:B 6.08467e-05
28 *1369:A *1657:D 0.000539721
29 *4:5 *1065:S1 0.000348032
30 *4:5 *1114:A2 0
31 *4:5 *2294:A 0
32 *4:5 *5:19 0
33 *4:7 *1065:S1 6.52606e-05
34 *4:7 *2294:A 0
35 *4:7 *481:14 1.80915e-05
36 *4:17 *984:B 0.000143185
37 *4:17 *1065:S1 6.06994e-05
38 *4:17 *1066:A1 0
39 *4:17 *481:14 3.77721e-05
40 *4:27 *1050:S0 0
41 *4:27 *1066:A0 0
42 *4:27 *1066:A1 4.97211e-05
43 *4:27 *1116:A1 0
44 *4:27 *1625:CLK 0.000163333
45 *4:27 *1625:D 5.49079e-06
46 *4:27 *520:14 3.072e-06
47 *4:27 *862:124 3.67543e-05
48 *4:27 *890:141 1.92974e-05
49 *4:36 *520:14 0
50 *4:36 *890:141 4.26859e-05
51 *4:82 *1067:A0 0
52 *4:82 *1465:D 3.2832e-05
53 *4:82 *1497:D 0.000463033
54 *4:82 *1657:D 0
55 *4:82 *1657:DE 6.50847e-05
56 *4:82 *858:443 0.000332955
57 *4:86 *1497:D 2.41274e-06
*RES
1 data_in[12] *4:5 10.4675 
2 *4:5 *4:7 0.508826 
3 *4:7 *4:17 4.77503 
4 *4:17 *4:27 34.0387 
5 *4:27 *1241:A 13.7491 
6 *4:27 *4:36 1.832 
7 *4:36 *1337:A 18.3789 
8 *4:36 *1305:A 18.9032 
9 *4:17 *984:A 13.7491 
10 *4:7 *1369:A 30.1257 
11 *4:5 *4:82 18.2135 
12 *4:82 *4:86 2.41132 
13 *4:86 *1209:A 10.5513 
14 *4:86 *1177:A 21.635 
15 *4:82 *1273:A 12.191 
*END

*D_NET *5 0.0127306
*CONN
*P data_in[13] I
*I *1306:A I *D sky130_fd_sc_hd__and3_1
*I *985:A I *D sky130_fd_sc_hd__and3_1
*I *1274:A I *D sky130_fd_sc_hd__and3_1
*I *1338:A I *D sky130_fd_sc_hd__and3_1
*I *1178:A I *D sky130_fd_sc_hd__and3_1
*I *1370:A I *D sky130_fd_sc_hd__and2_0
*I *1210:A I *D sky130_fd_sc_hd__and2_0
*I *1242:A I *D sky130_fd_sc_hd__and3_1
*CAP
1 data_in[13] 0.00201869
2 *1306:A 1.54421e-05
3 *985:A 0.000111379
4 *1274:A 0.000419537
5 *1338:A 2.06324e-05
6 *1178:A 0.000238453
7 *1370:A 0.00013556
8 *1210:A 0
9 *1242:A 0
10 *5:80 0.000621001
11 *5:76 0.000381749
12 *5:42 0.00130861
13 *5:30 0.00114117
14 *5:28 0.000635005
15 *5:19 0.00219153
16 *985:A *985:C 6.08467e-05
17 *985:A *878:184 4.03856e-05
18 *1178:A *1282:B 0
19 *1178:A *1498:D 3.61486e-05
20 *1178:A *418:459 4.57087e-05
21 *1178:A *423:379 0
22 *1274:A *1274:B 1.41181e-05
23 *1274:A *1562:D 0.000233938
24 *1274:A *876:172 0.000143269
25 *1274:A *876:186 0.000108754
26 *1274:A *878:184 2.85274e-05
27 *1306:A *1626:D 0.000171288
28 *1306:A *427:482 0.000171288
29 *1370:A *1210:B 4.19199e-05
30 *1370:A *871:125 0.000453648
31 *5:19 *1070:A1 2.04806e-05
32 *5:19 *1071:S0 1.9101e-05
33 *5:19 *1530:CLK 6.01588e-05
34 *5:28 *1242:C 8.48815e-05
35 *5:30 *1242:C 5.31128e-05
36 *5:30 *1338:C 9.77424e-05
37 *5:42 *1210:B 0.000114271
38 *5:42 *1242:C 4.31703e-05
39 *5:42 *1282:B 0
40 *5:42 *1498:D 0.000143469
41 *5:42 *871:125 0.000188221
42 *5:42 *890:246 3.25371e-05
43 *5:42 *890:265 5.23367e-05
44 *5:76 *1070:A1 5.44669e-05
45 *5:76 *1071:S0 1.67286e-05
46 *5:76 *1626:D 0.00051605
47 *5:76 *517:10 0.000278287
48 *5:76 *870:104 0
49 *5:76 *878:174 2.95757e-05
50 *5:76 *878:184 8.34839e-05
51 *5:80 *870:104 0
52 *5:80 *870:106 0
53 *5:80 *878:184 5.39463e-05
54 *4:5 *5:19 0
*RES
1 data_in[13] *5:19 14.8828 
2 *5:19 *1242:A 9.24915 
3 *5:19 *5:28 2.96592 
4 *5:28 *5:30 2.94181 
5 *5:30 *5:42 26.9957 
6 *5:42 *1210:A 9.24915 
7 *5:42 *1370:A 14.4094 
8 *5:42 *1178:A 23.8184 
9 *5:30 *1338:A 9.82786 
10 *5:28 *5:76 16.298 
11 *5:76 *5:80 6.74725 
12 *5:80 *1274:A 22.7767 
13 *5:80 *985:A 12.191 
14 *5:76 *1306:A 15.5817 
*END

*D_NET *6 0.0121355
*CONN
*P data_in[14] I
*I *1307:A I *D sky130_fd_sc_hd__and3_1
*I *1243:A I *D sky130_fd_sc_hd__and3_1
*I *1211:A I *D sky130_fd_sc_hd__and2_0
*I *1371:A I *D sky130_fd_sc_hd__and2_0
*I *1179:A I *D sky130_fd_sc_hd__and3_1
*I *1275:A I *D sky130_fd_sc_hd__and3_1
*I *1339:A I *D sky130_fd_sc_hd__and3_1
*I *986:A I *D sky130_fd_sc_hd__and3_1
*CAP
1 data_in[14] 0.00167975
2 *1307:A 0.000171779
3 *1243:A 0
4 *1211:A 0
5 *1371:A 0.000192381
6 *1179:A 0.000199497
7 *1275:A 0
8 *1339:A 0
9 *986:A 0.000301526
10 *6:87 0.00042011
11 *6:70 0.0010631
12 *6:59 0.000847619
13 *6:53 0.00023231
14 *6:23 0.000614126
15 *6:13 0.000368448
16 *6:11 0.00188682
17 *986:A *986:C 2.41483e-05
18 *986:A *1075:A0 0.000313361
19 *986:A *487:14 0.000177863
20 *986:A *866:74 0.000236607
21 *986:A *882:304 0.000169776
22 *1179:A *866:63 0.000121714
23 *1179:A *876:242 4.49959e-05
24 *1179:A *905:53 0
25 *1307:A *427:530 0
26 *1307:A *487:14 0.000357875
27 *1371:A *1659:CLK 0.000195743
28 *1371:A *423:395 7.8685e-05
29 *1371:A *881:259 0.000354082
30 *1371:A *891:309 0.000111722
31 *6:11 *1079:A2 0.000410844
32 *6:13 *487:14 2.9595e-05
33 *6:23 *1075:A0 0
34 *6:23 *487:14 0.000285509
35 *6:53 *427:536 6.08467e-05
36 *6:53 *891:269 7.92757e-06
37 *6:59 *1275:C 2.23105e-05
38 *6:59 *427:536 6.27332e-05
39 *6:59 *891:269 1.65872e-05
40 *6:59 *891:294 0.000502207
41 *6:70 *858:497 0.000226399
42 *6:70 *866:63 4.37309e-05
43 *6:70 *891:294 3.83021e-05
44 *6:87 *866:63 0.000115504
45 *6:87 *891:309 0.000149001
46 *6:87 *905:53 0
*RES
1 data_in[14] *6:11 8.38887 
2 *6:11 *6:13 0.793864 
3 *6:13 *6:23 12.9422 
4 *6:23 *986:A 29.3842 
5 *6:23 *1339:A 9.24915 
6 *6:13 *6:53 5.2234 
7 *6:53 *6:59 7.42687 
8 *6:59 *1275:A 9.24915 
9 *6:59 *6:70 15.2304 
10 *6:70 *1179:A 18.9032 
11 *6:70 *6:87 11.377 
12 *6:87 *1371:A 26.6503 
13 *6:87 *1211:A 9.24915 
14 *6:53 *1243:A 9.24915 
15 *6:11 *1307:A 19.9413 
*END

*D_NET *7 0.00905471
*CONN
*P data_in[15] I
*I *1276:A I *D sky130_fd_sc_hd__and3_1
*I *1180:A I *D sky130_fd_sc_hd__and3_1
*I *1372:A I *D sky130_fd_sc_hd__and2_0
*I *1212:A I *D sky130_fd_sc_hd__and2_0
*I *987:A I *D sky130_fd_sc_hd__and3_1
*I *1308:A I *D sky130_fd_sc_hd__and3_1
*I *1340:A I *D sky130_fd_sc_hd__and3_1
*I *1244:A I *D sky130_fd_sc_hd__and3_1
*CAP
1 data_in[15] 0.000908409
2 *1276:A 4.15051e-05
3 *1180:A 0.000303116
4 *1372:A 0
5 *1212:A 3.60286e-05
6 *987:A 0.000308455
7 *1308:A 0.000131191
8 *1340:A 2.71263e-05
9 *1244:A 0
10 *7:86 0.000536013
11 *7:82 0.000415062
12 *7:73 0.00118283
13 *7:43 0.000665854
14 *7:28 0.000309406
15 *7:26 0.00124255
16 *7:13 0.00108874
17 *987:A *1340:B 0.000107729
18 *987:A *417:195 0.000159284
19 *987:A *427:88 7.09909e-05
20 *1180:A *963:B 1.21831e-05
21 *1180:A *1081:A1 1.21461e-06
22 *1180:A *1081:A2 0
23 *1180:A *1081:A3 0
24 *1180:A *423:104 7.24743e-05
25 *1276:A *1212:B 4.82966e-05
26 *1308:A *1308:B 6.11359e-06
27 *1308:A *1308:C 2.23105e-05
28 *1308:A *1596:D 4.84271e-05
29 *1340:A *894:57 6.27718e-05
30 *7:13 *1244:C 3.31882e-05
31 *7:26 *1244:B 7.86847e-05
32 *7:26 *1244:C 5.88205e-05
33 *7:26 *1532:D 0.000172631
34 *7:26 *894:51 0
35 *7:28 *1244:C 3.39187e-05
36 *7:43 *1244:C 0.000140135
37 *7:43 *1340:B 0.000174063
38 *7:43 *427:88 6.08697e-06
39 *7:73 *1081:A2 0.000277454
40 *7:73 *1244:B 2.60241e-05
41 *7:73 *1276:B 4.63671e-05
42 *7:82 *1212:B 0.000123176
43 *7:82 *1276:B 2.61012e-05
44 *7:86 *963:B 4.99779e-05
45 *7:86 *1081:A2 0
*RES
1 data_in[15] *7:13 18.3583 
2 *7:13 *1244:A 13.7491 
3 *7:13 *7:26 6.26542 
4 *7:26 *7:28 1.62437 
5 *7:28 *1340:A 14.4725 
6 *7:28 *7:43 7.71881 
7 *7:43 *1308:A 16.691 
8 *7:43 *987:A 22.5389 
9 *7:26 *7:73 21.3404 
10 *7:73 *1212:A 10.2378 
11 *7:73 *7:82 4.05102 
12 *7:82 *7:86 10.0693 
13 *7:86 *1372:A 13.7491 
14 *7:86 *1180:A 20.7386 
15 *7:82 *1276:A 10.5271 
*END

*D_NET *8 0.0134949
*CONN
*P data_in[16] I
*I *1309:A I *D sky130_fd_sc_hd__and3_1
*I *1341:A I *D sky130_fd_sc_hd__and3_1
*I *1277:A I *D sky130_fd_sc_hd__and3_1
*I *988:A I *D sky130_fd_sc_hd__and3_1
*I *1245:A I *D sky130_fd_sc_hd__and3_1
*I *1213:A I *D sky130_fd_sc_hd__and2_0
*I *1373:A I *D sky130_fd_sc_hd__and2_0
*I *1181:A I *D sky130_fd_sc_hd__and3_1
*CAP
1 data_in[16] 0.00194661
2 *1309:A 2.59228e-05
3 *1341:A 0.000107739
4 *1277:A 0.000882078
5 *988:A 0.000183513
6 *1245:A 0
7 *1213:A 0
8 *1373:A 0
9 *1181:A 0.000354844
10 *8:78 0.00119719
11 *8:74 0.00032062
12 *8:33 0.000468068
13 *8:31 0.000925123
14 *8:21 0.0008119
15 *8:19 0.000620067
16 *8:15 0.00247049
17 *988:A *988:C 0.000263116
18 *988:A *1245:B 9.905e-05
19 *988:A *465:24 0
20 *988:A *870:106 2.24484e-05
21 *1181:A *1499:DE 0
22 *1181:A *1501:CLK 9.31314e-05
23 *1181:A *1501:D 0.000370567
24 *1181:A *423:395 0
25 *1181:A *858:470 0
26 *1181:A *890:40 0
27 *1277:A *1277:B 5.26719e-05
28 *1277:A *876:186 0.000157107
29 *1277:A *876:188 0.000102345
30 *1277:A *876:190 0.000117534
31 *1309:A *881:433 6.50727e-05
32 *8:19 *1085:A0 0.000127886
33 *8:19 *1085:A1 0
34 *8:19 *1245:B 0.000107502
35 *8:19 *1597:D 0
36 *8:19 *285:26 0
37 *8:31 *1085:A1 9.19632e-06
38 *8:31 *1213:B 6.27718e-05
39 *8:31 *1501:D 5.99352e-05
40 *8:31 *465:24 2.705e-05
41 *8:31 *465:34 0.000145832
42 *8:31 *880:255 0.000563077
43 *8:31 *881:417 0.000208728
44 *8:33 *1373:B 0.000208599
45 *8:33 *1501:D 7.93533e-05
46 *8:33 *880:255 0.000190993
47 *8:74 *1085:A0 2.7694e-05
48 *8:74 *1533:DE 0
49 *8:74 *1597:D 0
50 *8:74 *285:26 1.91246e-05
51 *8:74 *465:34 0
52 *8:78 *1563:DE 0
53 *8:78 *1597:D 0
54 *8:78 *427:524 0
55 *8:78 *874:667 0
*RES
1 data_in[16] *8:15 8.94758 
2 *8:15 *8:19 11.908 
3 *8:19 *8:21 4.5 
4 *8:21 *8:31 33.2116 
5 *8:31 *8:33 5.16022 
6 *8:33 *1181:A 29.2489 
7 *8:33 *1373:A 9.24915 
8 *8:31 *1213:A 9.24915 
9 *8:21 *1245:A 9.24915 
10 *8:19 *988:A 19.4928 
11 *8:15 *8:74 2.45487 
12 *8:74 *8:78 9.23876 
13 *8:78 *1277:A 29.3837 
14 *8:78 *1341:A 11.6364 
15 *8:74 *1309:A 14.4725 
*END

*D_NET *9 0.00780058
*CONN
*P data_in[17] I
*I *989:A I *D sky130_fd_sc_hd__and3_1
*I *1310:A I *D sky130_fd_sc_hd__and3_1
*I *1246:A I *D sky130_fd_sc_hd__and3_1
*I *1342:A I *D sky130_fd_sc_hd__and3_1
*I *1214:A I *D sky130_fd_sc_hd__and2_0
*I *1278:A I *D sky130_fd_sc_hd__and3_1
*I *1182:A I *D sky130_fd_sc_hd__and3_1
*I *1374:A I *D sky130_fd_sc_hd__and2_0
*CAP
1 data_in[17] 0.000943665
2 *989:A 7.60739e-05
3 *1310:A 0.000185694
4 *1246:A 0
5 *1342:A 0
6 *1214:A 4.97448e-05
7 *1278:A 9.13291e-05
8 *1182:A 0.000111857
9 *1374:A 0
10 *9:72 0.00028807
11 *9:63 0.000157764
12 *9:59 0.000557649
13 *9:44 0.000628814
14 *9:33 0.000334855
15 *9:22 0.000254315
16 *9:13 0.00099548
17 *989:A *989:C 0.000258128
18 *989:A *877:247 2.72743e-05
19 *1182:A *1182:C 0.000306769
20 *1182:A *874:501 0.000137345
21 *1182:A *891:107 0.000159016
22 *1214:A *318:24 0.000161956
23 *1278:A *1182:C 0.000202915
24 *1278:A *424:383 0.000122895
25 *1310:A *862:70 3.82228e-05
26 *1310:A *877:241 0.000377934
27 *1310:A *880:189 0.00021668
28 *1310:A *880:207 0.000157826
29 *9:13 *1140:A0 0
30 *9:13 *1662:CLK 0
31 *9:13 *1662:D 0.000172691
32 *9:22 *1140:A0 0
33 *9:22 *1374:B 1.37421e-05
34 *9:22 *1662:CLK 0
35 *9:33 *1140:A0 0
36 *9:33 *1374:B 4.28379e-05
37 *9:44 *1140:A0 0
38 *9:44 *1278:B 0
39 *9:44 *1374:B 5.39635e-06
40 *9:44 *318:24 2.8322e-05
41 *9:44 *891:120 0
42 *9:44 *891:133 0
43 *9:59 *989:C 0.000118166
44 *9:59 *1278:B 0
45 *9:59 *418:230 0
46 *9:59 *877:247 0
47 *9:59 *891:133 0
48 *9:59 *891:144 0
49 *9:63 *989:C 4.27003e-05
50 *9:63 *1278:B 0
51 *9:63 *877:247 0.000122083
52 *9:72 *989:C 2.15721e-05
53 *9:72 *1246:B 4.92721e-05
54 *9:72 *877:241 0.000253417
55 *9:72 *877:247 1.07248e-05
56 *9:72 *880:207 7.73825e-05
*RES
1 data_in[17] *9:13 21.4509 
2 *9:13 *1374:A 13.7491 
3 *9:13 *9:22 1.41674 
4 *9:22 *1182:A 18.9094 
5 *9:22 *9:33 2.24725 
6 *9:33 *1278:A 17.2456 
7 *9:33 *9:44 3.493 
8 *9:44 *1214:A 15.5817 
9 *9:44 *9:59 14.948 
10 *9:59 *9:63 6.74725 
11 *9:63 *1342:A 13.7491 
12 *9:63 *9:72 4.73876 
13 *9:72 *1246:A 13.7491 
14 *9:72 *1310:A 21.8422 
15 *9:59 *989:A 12.191 
*END

*D_NET *10 0.0135222
*CONN
*P data_in[18] I
*I *1343:A I *D sky130_fd_sc_hd__and3_1
*I *1375:A I *D sky130_fd_sc_hd__and2_0
*I *1279:A I *D sky130_fd_sc_hd__and3_1
*I *1183:A I *D sky130_fd_sc_hd__and3_1
*I *1215:A I *D sky130_fd_sc_hd__and2_0
*I *1247:A I *D sky130_fd_sc_hd__and3_1
*I *990:A I *D sky130_fd_sc_hd__and3_1
*I *1311:A I *D sky130_fd_sc_hd__and3_1
*CAP
1 data_in[18] 0.00110035
2 *1343:A 0
3 *1375:A 0
4 *1279:A 0
5 *1183:A 0.000724774
6 *1215:A 0
7 *1247:A 0
8 *990:A 0.000153583
9 *1311:A 0
10 *10:67 0.00105453
11 *10:56 0.00085471
12 *10:48 0.000828416
13 *10:44 0.000488004
14 *10:37 0.000393722
15 *10:15 0.000178063
16 *10:11 0.00133401
17 *990:A *990:C 4.33655e-05
18 *990:A *1311:B 6.50586e-05
19 *990:A *1407:D 0
20 *990:A *417:153 0.000299298
21 *990:A *427:58 0.000244148
22 *990:A *427:64 3.04234e-05
23 *1183:A *1183:C 0.000153808
24 *1183:A *70:57 1.23804e-05
25 *1183:A *418:72 0.000309405
26 *1183:A *418:87 2.95757e-05
27 *1183:A *865:57 0.000280619
28 *1183:A *868:10 0.000324166
29 *1183:A *884:185 2.37827e-05
30 *1183:A *904:36 7.77309e-06
31 *10:11 data_out[12] 0.00124553
32 *10:11 data_out[1] 0.00034929
33 *10:11 *1114:A2 0
34 *10:11 *12:17 0.00054086
35 *10:11 *898:43 3.69687e-06
36 *10:15 *417:168 2.0456e-06
37 *10:15 *427:64 3.5534e-06
38 *10:15 *856:30 4.75721e-06
39 *10:37 *1535:D 2.85274e-05
40 *10:37 *417:168 9.93468e-06
41 *10:37 *856:30 7.69708e-05
42 *10:37 *869:12 0
43 *10:37 *869:14 0
44 *10:44 *1247:C 0.000153892
45 *10:44 *1535:D 5.03285e-05
46 *10:48 *1343:B 6.13051e-05
47 *10:48 *1343:C 1.38184e-05
48 *10:48 *417:138 0.0002341
49 *10:48 *419:61 0.000128465
50 *10:48 *419:71 7.80866e-05
51 *10:48 *505:16 0.000321846
52 *10:56 *1096:A3 0.000103002
53 *10:56 *69:53 9.87353e-05
54 *10:56 *69:55 5.2504e-06
55 *10:56 *69:57 9.35753e-06
56 *10:56 *69:138 0.000379505
57 *10:56 *128:44 0
58 *10:56 *128:46 0
59 *10:67 *1215:B 0.000565999
60 *10:67 *69:138 7.27446e-05
61 *10:67 *418:72 4.66492e-05
*RES
1 data_in[18] *10:11 8.31072 
2 *10:11 *10:15 4.87861 
3 *10:15 *1311:A 9.24915 
4 *10:15 *990:A 15.5668 
5 *10:11 *10:37 10.3091 
6 *10:37 *1247:A 9.24915 
7 *10:37 *10:44 5.16022 
8 *10:44 *10:48 12.2495 
9 *10:48 *10:56 24.4366 
10 *10:56 *1215:A 9.24915 
11 *10:56 *10:67 9.09068 
12 *10:67 *1183:A 34.2701 
13 *10:67 *1279:A 9.24915 
14 *10:48 *1375:A 9.24915 
15 *10:44 *1343:A 9.24915 
*END

*D_NET *11 0.0161933
*CONN
*P data_in[19] I
*I *1184:A I *D sky130_fd_sc_hd__and3_1
*I *1280:A I *D sky130_fd_sc_hd__and3_1
*I *991:A I *D sky130_fd_sc_hd__and3_1
*I *1312:A I *D sky130_fd_sc_hd__and3_1
*I *1344:A I *D sky130_fd_sc_hd__and3_1
*I *1248:A I *D sky130_fd_sc_hd__and3_1
*I *1376:A I *D sky130_fd_sc_hd__and2_0
*I *1216:A I *D sky130_fd_sc_hd__and2_0
*CAP
1 data_in[19] 0.00313047
2 *1184:A 0
3 *1280:A 0
4 *991:A 0.000135244
5 *1312:A 0.000262383
6 *1344:A 4.30322e-05
7 *1248:A 6.88536e-05
8 *1376:A 0.000214579
9 *1216:A 6.27505e-05
10 *11:81 0.000397627
11 *11:65 0.000293873
12 *11:61 0.000897519
13 *11:38 0.000973761
14 *11:36 0.000271123
15 *11:23 0.000477886
16 *11:17 0.00331813
17 *991:A *1344:B 2.9178e-05
18 *991:A *1408:D 0
19 *1216:A *1216:B 0.000113968
20 *1216:A *1504:D 8.65522e-05
21 *1248:A *1536:D 3.024e-05
22 *1248:A *875:315 0.000127152
23 *1248:A *875:330 9.85384e-05
24 *1312:A *1312:C 0.000100535
25 *1312:A *1344:B 5.20546e-06
26 *1312:A *874:253 1.77732e-05
27 *1344:A *1248:B 4.83591e-05
28 *1344:A *1536:D 2.41274e-06
29 *1344:A *875:330 0.000265537
30 *1376:A *1376:B 2.58616e-05
31 *1376:A *863:16 9.70689e-05
32 *1376:A *887:79 3.56492e-05
33 *11:17 *1455:D 5.78738e-05
34 *11:17 *23:13 5.81458e-05
35 *11:17 *82:22 0.00218333
36 *11:17 *871:19 0.000109657
37 *11:17 *871:21 0.00067804
38 *11:17 *876:12 0
39 *11:17 *880:320 1.17485e-06
40 *11:17 *881:27 3.52076e-06
41 *11:23 *1280:C 0
42 *11:23 *871:21 0.000166426
43 *11:23 *876:12 0
44 *11:36 *1280:C 0.000124876
45 *11:36 *871:21 0
46 *11:38 *1280:C 0.000112361
47 *11:38 *863:16 4.01825e-05
48 *11:61 *1536:D 1.9939e-05
49 *11:61 *2289:A 0
50 *11:61 *443:12 0
51 *11:61 *871:25 0
52 *11:61 *879:51 0
53 *11:61 *880:29 0.000780462
54 *11:61 *887:91 1.46079e-05
55 *11:61 *895:47 2.20927e-06
56 *11:61 *897:14 0
57 *11:65 *1344:C 0
58 *11:65 *1536:D 2.26708e-05
59 *11:65 *874:261 0.000186568
60 *11:65 *879:51 0
*RES
1 data_in[19] *11:17 24.2876 
2 *11:17 *11:23 9.41035 
3 *11:23 *1216:A 11.6364 
4 *11:23 *11:36 14.9845 
5 *11:36 *11:38 1.8326 
6 *11:38 *1376:A 23.2722 
7 *11:38 *11:61 24.1878 
8 *11:61 *11:65 9.65401 
9 *11:65 *1248:A 11.6364 
10 *11:65 *1344:A 12.191 
11 *11:61 *11:81 4.5 
12 *11:81 *1312:A 13.3243 
13 *11:81 *991:A 11.6605 
14 *11:36 *1280:A 9.24915 
15 *11:17 *1184:A 13.7491 
*END

*D_NET *12 0.0190382
*CONN
*P data_in[1] I
*I *1358:A I *D sky130_fd_sc_hd__and2_0
*I *1166:A I *D sky130_fd_sc_hd__and3_1
*I *1262:A I *D sky130_fd_sc_hd__and3_1
*I *1294:A I *D sky130_fd_sc_hd__and3_1
*I *1326:A I *D sky130_fd_sc_hd__and3_1
*I *973:A I *D sky130_fd_sc_hd__and3_1
*I *1230:A I *D sky130_fd_sc_hd__and3_1
*I *1198:A I *D sky130_fd_sc_hd__and2_0
*CAP
1 data_in[1] 0.00316365
2 *1358:A 7.21467e-05
3 *1166:A 3.51473e-05
4 *1262:A 0
5 *1294:A 3.4057e-05
6 *1326:A 0
7 *973:A 0.000261871
8 *1230:A 0
9 *1198:A 0
10 *12:48 0.000724459
11 *12:40 0.000545479
12 *12:36 0.000511542
13 *12:34 0.000479909
14 *12:30 0.000221097
15 *12:26 0.000276009
16 *12:17 0.00326688
17 *973:A *973:C 0.000317344
18 *973:A *1230:C 2.48457e-05
19 *973:A *868:177 7.25324e-06
20 *1166:A *418:60 4.66492e-05
21 *1166:A *418:180 6.08467e-05
22 *1166:A *423:55 3.82228e-05
23 *1294:A *874:73 9.19886e-06
24 *1358:A *418:50 0
25 *1358:A *423:46 8.36586e-06
26 *1358:A *858:165 0
27 *12:17 data_out[16] 0.000650456
28 *12:17 data_out[1] 0.00034929
29 *12:17 *1114:A2 0
30 *12:17 *1646:D 0.000160179
31 *12:17 *2288:A 0.000776077
32 *12:17 *481:14 0.00516467
33 *12:17 *858:165 0
34 *12:26 *1646:D 0.000171811
35 *12:26 *858:165 0
36 *12:30 *1646:D 0.000112367
37 *12:30 *418:60 0.000259225
38 *12:30 *423:55 0.000187307
39 *12:34 *418:50 2.6524e-05
40 *12:34 *874:58 3.75492e-05
41 *12:36 *1326:B 4.90673e-05
42 *12:36 *874:58 0.000216434
43 *12:36 *884:210 8.85643e-05
44 *12:40 *1326:B 5.05907e-05
45 *12:48 *1230:C 5.03545e-06
46 *12:48 *1294:C 0
47 *12:48 *1518:CLK 0
48 *12:48 *1518:D 0
49 *12:48 *1518:DE 2.33103e-06
50 *12:48 *437:20 8.49133e-05
51 *10:11 *12:17 0.00054086
*RES
1 data_in[1] *12:17 18.8028 
2 *12:17 *1198:A 13.7491 
3 *12:17 *12:26 3.493 
4 *12:26 *12:30 9.66022 
5 *12:30 *12:34 6.74725 
6 *12:34 *12:36 11.3828 
7 *12:36 *12:40 6.74725 
8 *12:40 *12:48 19.3114 
9 *12:48 *1230:A 9.24915 
10 *12:48 *973:A 15.7356 
11 *12:40 *1326:A 9.24915 
12 *12:36 *1294:A 14.4725 
13 *12:34 *1262:A 13.7491 
14 *12:30 *1166:A 10.5271 
15 *12:26 *1358:A 15.474 
*END

*D_NET *13 0.0160412
*CONN
*P data_in[20] I
*I *1217:A I *D sky130_fd_sc_hd__and2_0
*I *1185:A I *D sky130_fd_sc_hd__and3_1
*I *960:A I *D sky130_fd_sc_hd__and2_0
*I *1313:A I *D sky130_fd_sc_hd__and3_1
*I *1249:A I *D sky130_fd_sc_hd__and3_1
*I *1345:A I *D sky130_fd_sc_hd__and3_1
*I *992:A I *D sky130_fd_sc_hd__and3_1
*I *1281:A I *D sky130_fd_sc_hd__and3_1
*CAP
1 data_in[20] 0.00258009
2 *1217:A 0
3 *1185:A 0.000313064
4 *960:A 0
5 *1313:A 6.49391e-05
6 *1249:A 0.000296083
7 *1345:A 0
8 *992:A 4.39145e-05
9 *1281:A 0.000175948
10 *13:100 0.00131052
11 *13:64 0.000422143
12 *13:55 0.000417367
13 *13:49 0.00155785
14 *13:34 0.00053929
15 *13:28 0.000854185
16 *13:13 0.00331899
17 *992:A *868:56 5.12382e-05
18 *1185:A *960:B 6.36477e-05
19 *1249:A *1537:D 8.23171e-06
20 *1249:A *427:130 0.000103907
21 *1249:A *427:139 0.000248172
22 *1281:A *1281:B 6.15869e-05
23 *1313:A *1313:C 7.04127e-05
24 *1313:A *874:83 2.15543e-05
25 *1313:A *903:69 0
26 *13:13 *1120:A3 0
27 *13:13 *1120:S0 0
28 *13:13 *1121:A1 4.04935e-05
29 *13:13 *1121:A3 0
30 *13:13 *1572:CLK 0
31 *13:13 *16:15 0.000456507
32 *13:13 *524:16 0
33 *13:13 *893:205 0
34 *13:28 *1121:A0 0
35 *13:28 *1121:A1 0.000111197
36 *13:28 *1121:A3 0
37 *13:28 *1121:S0 0
38 *13:28 *1505:D 2.84661e-05
39 *13:28 *2298:A 0
40 *13:28 *418:142 0.000114518
41 *13:28 *893:10 0
42 *13:28 *893:23 0
43 *13:28 *896:61 0
44 *13:34 *418:142 0.0002646
45 *13:34 *868:56 7.70866e-05
46 *13:34 *868:67 0.000160756
47 *13:34 *877:82 0.000150064
48 *13:49 *1604:DE 0
49 *13:49 *1636:DE 0.000159678
50 *13:49 *863:100 3.88358e-05
51 *13:49 *877:71 0.000356595
52 *13:55 *1345:C 0.000330695
53 *13:55 *1537:D 5.20761e-05
54 *13:64 *1537:D 7.28567e-06
55 *13:100 *1106:A0 0
56 *13:100 *1106:A2 0.000110458
57 *13:100 *1106:S1 0.000309709
58 *13:100 *68:318 0.000121036
59 *13:100 *860:103 0.000225201
60 *13:100 *893:70 0.000192594
61 *13:100 *893:109 0.000210253
*RES
1 data_in[20] *13:13 47.7924 
2 *13:13 *1281:A 17.8002 
3 *13:13 *13:28 18.6881 
4 *13:28 *13:34 9.09068 
5 *13:34 *992:A 10.5513 
6 *13:34 *13:49 15.815 
7 *13:49 *13:55 10.8992 
8 *13:55 *1345:A 9.24915 
9 *13:55 *13:64 1.30211 
10 *13:64 *1249:A 14.4335 
11 *13:64 *1313:A 20.0811 
12 *13:49 *13:100 32.4563 
13 *13:100 *960:A 9.24915 
14 *13:100 *1185:A 15.8079 
15 *13:28 *1217:A 9.24915 
*END

*D_NET *14 0.0101872
*CONN
*P data_in[21] I
*I *1346:A I *D sky130_fd_sc_hd__and3_1
*I *1250:A I *D sky130_fd_sc_hd__and3_1
*I *993:A I *D sky130_fd_sc_hd__and3_1
*I *1218:A I *D sky130_fd_sc_hd__and2_0
*I *961:A I *D sky130_fd_sc_hd__and2_0
*I *1282:A I *D sky130_fd_sc_hd__and3_1
*I *1186:A I *D sky130_fd_sc_hd__and3_1
*I *1314:A I *D sky130_fd_sc_hd__and3_1
*CAP
1 data_in[21] 0.00189949
2 *1346:A 0.000214898
3 *1250:A 0
4 *993:A 0.000183002
5 *1218:A 0
6 *961:A 0.000289387
7 *1282:A 8.72254e-05
8 *1186:A 8.77754e-05
9 *1314:A 0
10 *14:55 0.000638779
11 *14:49 0.000417835
12 *14:32 0.00100231
13 *14:19 0.00081382
14 *14:15 0.000379138
15 *14:11 0.000141178
16 *14:9 0.00211438
17 *993:A *427:472 7.40248e-05
18 *993:A *878:174 1.21461e-06
19 *993:A *881:387 0.000163344
20 *993:A *906:127 2.31359e-05
21 *1186:A *417:363 0.000137858
22 *1282:A *889:174 6.46398e-05
23 *1346:A *1346:C 6.50727e-05
24 *1346:A *1602:D 2.72533e-05
25 *1346:A *417:402 9.19886e-06
26 *1346:A *427:456 0
27 *1346:A *870:82 0.000223296
28 *1346:A *870:88 0.000153119
29 *1346:A *880:425 0
30 *14:9 *1602:D 2.08233e-05
31 *14:9 *25:15 0
32 *14:9 *465:12 2.86152e-05
33 *14:9 *870:88 9.76996e-05
34 *14:9 *870:98 0.000106792
35 *14:15 *1602:D 9.87056e-05
36 *14:15 *427:458 0.000124413
37 *14:15 *427:472 9.73599e-06
38 *14:19 *1314:B 2.30636e-05
39 *14:19 *427:472 8.24822e-05
40 *14:32 *1314:B 7.76624e-05
41 *14:32 *1506:D 6.75453e-05
42 *14:32 *418:537 0
43 *14:32 *427:472 2.20471e-05
44 *14:49 *1506:D 3.41004e-05
45 *14:49 *417:363 3.53354e-05
46 *14:49 *889:230 2.33638e-05
47 *14:55 *1186:C 0
48 *14:55 *1378:D 0
49 *14:55 *1378:DE 5.76259e-05
50 *14:55 *889:174 3.92275e-05
51 *14:55 *889:230 2.65831e-05
*RES
1 data_in[21] *14:9 11.9531 
2 *14:9 *14:11 4.5 
3 *14:11 *14:15 4.62973 
4 *14:15 *14:19 1.85672 
5 *14:19 *1314:A 9.24915 
6 *14:19 *14:32 16.5788 
7 *14:32 *1186:A 16.9368 
8 *14:32 *14:49 8.92403 
9 *14:49 *14:55 11.6232 
10 *14:55 *1282:A 15.8893 
11 *14:55 *961:A 20.0186 
12 *14:49 *1218:A 9.24915 
13 *14:15 *993:A 23.1836 
14 *14:11 *1250:A 9.24915 
15 *14:9 *1346:A 21.2876 
*END

*D_NET *15 0.0171841
*CONN
*P data_in[22] I
*I *994:A I *D sky130_fd_sc_hd__and3_1
*I *1187:A I *D sky130_fd_sc_hd__and3_1
*I *1219:A I *D sky130_fd_sc_hd__and2_0
*I *962:A I *D sky130_fd_sc_hd__and2_0
*I *1283:A I *D sky130_fd_sc_hd__and3_1
*I *1251:A I *D sky130_fd_sc_hd__and3_1
*I *1347:A I *D sky130_fd_sc_hd__and3_1
*I *1315:A I *D sky130_fd_sc_hd__and3_1
*CAP
1 data_in[22] 0.0040455
2 *994:A 0
3 *1187:A 0
4 *1219:A 0.000357555
5 *962:A 5.85149e-05
6 *1283:A 0.000100617
7 *1251:A 1.59894e-05
8 *1347:A 6.62931e-05
9 *1315:A 0
10 *15:82 0.000445297
11 *15:67 0.000179469
12 *15:56 0.000350876
13 *15:45 0.000436056
14 *15:34 0.000417979
15 *15:30 0.000591034
16 *15:17 0.00448786
17 *962:A *962:B 0.000109427
18 *962:A *1283:C 7.66391e-06
19 *962:A *1379:D 2.58616e-05
20 *1219:A *1187:C 9.32983e-05
21 *1219:A *1219:B 0
22 *1219:A *123:43 0
23 *1219:A *424:456 0.000515076
24 *1251:A *1539:D 1.43848e-05
25 *1251:A *875:91 6.50586e-05
26 *1283:A *1283:C 0.000304844
27 *1283:A *1379:D 3.99086e-06
28 *1347:A *1347:C 6.08467e-05
29 *1347:A *877:158 0.000110458
30 *15:17 *1105:A1 0.000138523
31 *15:17 *1107:A1 0
32 *15:17 *29:17 0
33 *15:17 *763:20 0
34 *15:17 *856:130 0.00132469
35 *15:17 *858:24 0.000355308
36 *15:17 *865:220 0.000129632
37 *15:17 *880:53 0
38 *15:17 *880:59 0
39 *15:17 *893:189 0
40 *15:17 *896:61 3.30982e-05
41 *15:30 *858:24 0.000357421
42 *15:30 *880:53 0
43 *15:34 *1347:C 5.1493e-06
44 *15:34 *418:194 2.39926e-05
45 *15:34 *865:346 0.000109291
46 *15:34 *877:162 6.34777e-05
47 *15:45 *1347:C 1.22892e-05
48 *15:45 *1539:DE 1.91246e-05
49 *15:45 *1571:CLK 0.000101945
50 *15:45 *418:194 2.13316e-05
51 *15:45 *865:346 0.000154612
52 *15:56 *1571:CLK 7.77309e-06
53 *15:56 *865:346 0.000201992
54 *15:56 *875:85 0.000458889
55 *15:67 *865:346 1.28301e-05
56 *15:67 *875:85 4.86266e-05
57 *15:82 *1187:C 6.08467e-05
58 *15:82 *1379:D 0.000174612
59 *15:82 *865:346 1.79484e-05
60 *15:82 *875:85 0.000219953
61 *3:13 *15:17 0.000266822
*RES
1 data_in[22] *15:17 45.8247 
2 *15:17 *1315:A 13.7491 
3 *15:17 *15:30 15.366 
4 *15:30 *15:34 9.23876 
5 *15:34 *1347:A 15.5817 
6 *15:34 *15:45 6.81502 
7 *15:45 *1251:A 14.4725 
8 *15:45 *15:56 8.89128 
9 *15:56 *1283:A 17.2456 
10 *15:56 *15:67 1.00149 
11 *15:67 *962:A 15.5817 
12 *15:67 *15:82 9.13165 
13 *15:82 *1219:A 28.1509 
14 *15:82 *1187:A 9.24915 
15 *15:30 *994:A 9.24915 
*END

*D_NET *16 0.0091908
*CONN
*P data_in[23] I
*I *1284:A I *D sky130_fd_sc_hd__and3_1
*I *1188:A I *D sky130_fd_sc_hd__and3_1
*I *1348:A I *D sky130_fd_sc_hd__and3_1
*I *995:A I *D sky130_fd_sc_hd__and3_1
*I *1316:A I *D sky130_fd_sc_hd__and3_1
*I *1252:A I *D sky130_fd_sc_hd__and3_1
*I *963:A I *D sky130_fd_sc_hd__and2_0
*I *1220:A I *D sky130_fd_sc_hd__and2_0
*CAP
1 data_in[23] 0.000966102
2 *1284:A 0.000148768
3 *1188:A 0.000129992
4 *1348:A 0
5 *995:A 0.000416684
6 *1316:A 0.000250147
7 *1252:A 0.000174198
8 *963:A 2.97918e-05
9 *1220:A 0
10 *16:69 0.000556614
11 *16:60 0.000585396
12 *16:47 0.000628473
13 *16:36 0.00046641
14 *16:30 0.000403796
15 *16:24 0.00030337
16 *16:15 0.00102456
17 *963:A *1120:S0 2.58757e-05
18 *995:A *1604:DE 0.000493666
19 *995:A *1636:D 0
20 *995:A *1636:DE 0.000122844
21 *995:A *877:84 0
22 *1188:A *1120:S0 0.000360313
23 *1252:A *1180:B 3.072e-06
24 *1252:A *1252:C 2.23105e-05
25 *1252:A *1604:CLK 4.0752e-05
26 *1252:A *1604:D 0.000321918
27 *1284:A *418:112 7.02172e-06
28 *1284:A *418:119 0.000176388
29 *1316:A *1316:B 3.24105e-05
30 *1316:A *1316:C 0.000100785
31 *1316:A *874:116 5.94389e-05
32 *16:15 *1380:D 0.000192472
33 *16:15 *1508:CLK 0
34 *16:15 *1508:D 0
35 *16:24 *418:112 3.75382e-05
36 *16:30 *1284:B 0
37 *16:30 *1380:D 3.80222e-05
38 *16:36 *963:B 4.19401e-06
39 *16:36 *1120:S0 0.000308814
40 *16:36 *1380:D 6.27782e-05
41 *16:47 *1188:B 0
42 *16:60 *1252:C 0
43 *16:60 *1540:D 0.000162936
44 *16:60 *1604:D 0
45 *16:60 *1604:DE 0
46 *16:69 *874:116 7.64432e-05
47 *13:13 *16:15 0.000456507
*RES
1 data_in[23] *16:15 26.5956 
2 *16:15 *1220:A 9.24915 
3 *16:15 *16:24 1.71204 
4 *16:24 *16:30 11.2472 
5 *16:30 *16:36 9.41316 
6 *16:36 *963:A 14.4725 
7 *16:36 *16:47 5.56926 
8 *16:47 *1252:A 18.9094 
9 *16:47 *16:60 9.23876 
10 *16:60 *1316:A 14.964 
11 *16:60 *16:69 3.49641 
12 *16:69 *995:A 30.6368 
13 *16:69 *1348:A 9.24915 
14 *16:30 *1188:A 13.3002 
15 *16:24 *1284:A 13.8548 
*END

*D_NET *17 0.0161139
*CONN
*P data_in[24] I
*I *1285:A I *D sky130_fd_sc_hd__and3_1
*I *1221:A I *D sky130_fd_sc_hd__and2_0
*I *964:A I *D sky130_fd_sc_hd__and2_0
*I *1189:A I *D sky130_fd_sc_hd__and3_1
*I *1349:A I *D sky130_fd_sc_hd__and3_1
*I *1317:A I *D sky130_fd_sc_hd__and3_1
*I *1253:A I *D sky130_fd_sc_hd__and3_1
*I *996:A I *D sky130_fd_sc_hd__and3_1
*CAP
1 data_in[24] 0.00417673
2 *1285:A 1.16004e-05
3 *1221:A 0
4 *964:A 0
5 *1189:A 0
6 *1349:A 0
7 *1317:A 0
8 *1253:A 0.000179255
9 *996:A 0.000509232
10 *17:51 0.000990412
11 *17:45 0.000420251
12 *17:43 0.00033442
13 *17:41 0.00044507
14 *17:33 0.000382565
15 *17:31 0.00025373
16 *17:23 0.00428847
17 *996:A *1102:A1 0
18 *996:A *1541:DE 0.00014735
19 *996:A *1605:CLK 0.000159661
20 *996:A *856:308 5.68544e-05
21 *996:A *875:397 0
22 *996:A *879:143 1.21461e-06
23 *1253:A *996:C 9.89572e-05
24 *1253:A *1253:C 8.83451e-06
25 *1253:A *1541:D 0.000312704
26 *1253:A *871:167 2.22974e-05
27 *1285:A *1285:C 6.08467e-05
28 *1285:A *418:431 4.88955e-05
29 *17:23 *1125:A1 3.55859e-05
30 *17:23 *1365:B 0
31 *17:23 *18:13 1.51648e-05
32 *17:23 *121:112 0.000121065
33 *17:23 *418:443 2.44031e-06
34 *17:31 *1285:C 0.000352405
35 *17:31 *418:418 0.000111722
36 *17:31 *418:431 0.000321905
37 *17:31 *876:121 6.08467e-05
38 *17:31 *876:125 7.14746e-05
39 *17:31 *881:57 3.00073e-05
40 *17:33 *964:B 6.50586e-05
41 *17:33 *1285:B 0.000217937
42 *17:33 *1381:D 0.000217923
43 *17:33 *876:121 2.11328e-05
44 *17:41 *1189:C 0.000661569
45 *17:41 *1477:D 4.56004e-05
46 *17:41 *417:342 2.2694e-05
47 *17:41 *417:351 5.29299e-05
48 *17:43 *1349:C 7.43087e-05
49 *17:43 *417:335 2.32594e-05
50 *17:43 *417:342 9.08435e-05
51 *17:45 *1317:C 0.000115451
52 *17:45 *1605:D 0.000171273
53 *17:45 *417:328 2.32594e-05
54 *17:45 *417:335 7.0656e-05
55 *17:51 *1317:C 6.50727e-05
56 *17:51 *1605:CLK 2.06598e-05
57 *17:51 *1605:D 0
58 *17:51 *417:328 9.19886e-06
59 *17:51 *887:24 0.000113104
*RES
1 data_in[24] *17:23 20.6839 
2 *17:23 *17:31 15.0224 
3 *17:31 *17:33 5.16022 
4 *17:33 *17:41 18.7624 
5 *17:41 *17:43 6.26943 
6 *17:43 *17:45 5.16022 
7 *17:45 *17:51 11.6232 
8 *17:51 *996:A 27.1067 
9 *17:51 *1253:A 20.0427 
10 *17:45 *1317:A 9.24915 
11 *17:43 *1349:A 9.24915 
12 *17:41 *1189:A 9.24915 
13 *17:33 *964:A 9.24915 
14 *17:31 *1221:A 9.24915 
15 *17:23 *1285:A 9.97254 
*END

*D_NET *18 0.0105971
*CONN
*P data_in[25] I
*I *1318:A I *D sky130_fd_sc_hd__and3_1
*I *1254:A I *D sky130_fd_sc_hd__and3_1
*I *1350:A I *D sky130_fd_sc_hd__and3_1
*I *1190:A I *D sky130_fd_sc_hd__and3_1
*I *997:A I *D sky130_fd_sc_hd__and3_1
*I *1222:A I *D sky130_fd_sc_hd__and2_0
*I *965:A I *D sky130_fd_sc_hd__and2_0
*I *1286:A I *D sky130_fd_sc_hd__and3_1
*CAP
1 data_in[25] 0.00163224
2 *1318:A 0
3 *1254:A 0
4 *1350:A 9.50368e-05
5 *1190:A 0
6 *997:A 0.000141935
7 *1222:A 0
8 *965:A 8.65993e-05
9 *1286:A 0.000574991
10 *18:70 9.50368e-05
11 *18:52 0.000226212
12 *18:21 0.000875505
13 *18:19 0.000343699
14 *18:17 0.000549478
15 *18:15 0.000517501
16 *18:13 0.00181433
17 *965:A *121:91 3.23874e-05
18 *997:A *1190:C 0.000305009
19 *997:A *872:84 0.00052437
20 *1286:A *965:B 0.000105116
21 *1286:A *1145:A1 7.57271e-05
22 *1286:A *1147:A1 0
23 *1286:A *1478:CLK 0
24 *1286:A *423:358 0.000459299
25 *1286:A *544:14 1.40603e-05
26 *1286:A *876:350 0.000113968
27 *1286:A *906:87 0.000160617
28 *1350:A *1350:C 0.000120474
29 *1350:A *1638:D 0.00025527
30 *1350:A *126:50 0.000450708
31 *18:13 *125:71 2.82987e-06
32 *18:13 *544:14 4.46284e-06
33 *18:13 *861:44 0
34 *18:15 *1146:A1 0
35 *18:15 *427:343 0.000348217
36 *18:15 *544:14 9.75271e-05
37 *18:17 *427:343 2.86829e-05
38 *18:17 *544:14 0.000135242
39 *18:19 *1478:D 0
40 *18:19 *544:14 5.29763e-05
41 *18:21 *1382:D 0.000146652
42 *18:21 *1478:CLK 0
43 *18:21 *1478:D 0
44 *18:21 *544:14 0.000108083
45 *18:52 *872:84 8.76513e-05
46 *17:23 *18:13 1.51648e-05
*RES
1 data_in[25] *18:13 8.29271 
2 *18:13 *18:15 6.81502 
3 *18:15 *18:17 8.89128 
4 *18:17 *18:19 3.493 
5 *18:19 *18:21 6.81502 
6 *18:21 *1286:A 29.7432 
7 *18:21 *965:A 15.5817 
8 *18:19 *1222:A 13.7491 
9 *18:17 *18:52 6.88721 
10 *18:52 *997:A 16.1214 
11 *18:52 *1190:A 9.24915 
12 *18:15 *18:70 4.5 
13 *18:70 *1350:A 14.4094 
14 *18:70 *1254:A 9.24915 
15 *18:13 *1318:A 13.7491 
*END

*D_NET *19 0.0149991
*CONN
*P data_in[26] I
*I *1191:A I *D sky130_fd_sc_hd__and3_1
*I *1319:A I *D sky130_fd_sc_hd__and3_1
*I *1351:A I *D sky130_fd_sc_hd__and3_1
*I *1255:A I *D sky130_fd_sc_hd__and3_1
*I *998:A I *D sky130_fd_sc_hd__and3_1
*I *1287:A I *D sky130_fd_sc_hd__and3_1
*I *1223:A I *D sky130_fd_sc_hd__and2_0
*I *966:A I *D sky130_fd_sc_hd__and2_0
*CAP
1 data_in[26] 0.00130408
2 *1191:A 0
3 *1319:A 0
4 *1351:A 0.000188021
5 *1255:A 0
6 *998:A 3.07124e-05
7 *1287:A 2.4866e-05
8 *1223:A 0.000170035
9 *966:A 0.000115392
10 *19:83 0.000727885
11 *19:64 0.000718287
12 *19:58 0.000385683
13 *19:43 0.000282094
14 *19:21 0.000556423
15 *19:17 0.000418094
16 *19:15 0.00143193
17 *966:A *966:B 5.31465e-05
18 *966:A *1383:D 6.27782e-05
19 *966:A *124:242 1.42265e-05
20 *998:A *870:35 6.08467e-05
21 *1223:A *1027:A0 2.47663e-05
22 *1223:A *1223:B 0.000115934
23 *1223:A *1511:D 0.000169684
24 *1223:A *878:148 2.352e-05
25 *1223:A *888:12 0.000169684
26 *1287:A *124:242 6.08467e-05
27 *1351:A *1255:B 2.01874e-05
28 *1351:A *1255:C 0.000122895
29 *1351:A *1351:B 0.000118017
30 *1351:A *1543:D 5.20546e-06
31 *19:15 *1137:S 0.000796283
32 *19:15 *537:16 0.00128081
33 *19:15 *880:362 0.000938282
34 *19:17 *417:465 0.000302469
35 *19:17 *427:431 0.000302469
36 *19:21 *1383:D 9.43286e-05
37 *19:21 *124:242 9.97735e-05
38 *19:43 *417:465 7.39918e-05
39 *19:43 *427:431 7.88662e-05
40 *19:58 *1319:C 3.53929e-05
41 *19:58 *69:503 6.27718e-05
42 *19:58 *417:465 0.000673836
43 *19:58 *417:469 3.18797e-05
44 *19:58 *427:431 0.000726193
45 *19:58 *870:56 4.76794e-05
46 *19:64 *1027:A0 0
47 *19:64 *69:503 0.000539177
48 *19:64 *427:404 3.96696e-05
49 *19:64 *870:56 0.000351536
50 *19:64 *878:148 0.000112509
51 *19:83 *1026:A3 0.000245106
52 *19:83 *1255:B 4.34841e-05
53 *19:83 *1255:C 6.27782e-05
54 *19:83 *1351:C 7.32647e-05
55 *19:83 *69:489 1.91246e-05
56 *19:83 *69:503 0.000213193
57 *19:83 *861:65 2.02035e-05
58 *19:83 *878:148 4.68411e-05
59 *19:83 *878:258 4.00886e-05
60 *19:83 *878:267 0.000271823
*RES
1 data_in[26] *19:15 8.83451 
2 *19:15 *19:17 5.77689 
3 *19:17 *19:21 11.324 
4 *19:21 *966:A 12.191 
5 *19:21 *1223:A 24.4053 
6 *19:17 *19:43 1.41674 
7 *19:43 *1287:A 14.4725 
8 *19:43 *19:58 18.6825 
9 *19:58 *19:64 11.9075 
10 *19:64 *998:A 14.4725 
11 *19:64 *19:83 21.3922 
12 *19:83 *1255:A 9.24915 
13 *19:83 *1351:A 23.4382 
14 *19:58 *1319:A 9.24915 
15 *19:15 *1191:A 13.7491 
*END

*D_NET *20 0.0112969
*CONN
*P data_in[27] I
*I *1192:A I *D sky130_fd_sc_hd__and3_1
*I *1288:A I *D sky130_fd_sc_hd__and3_1
*I *1224:A I *D sky130_fd_sc_hd__and2_0
*I *999:A I *D sky130_fd_sc_hd__and3_1
*I *1256:A I *D sky130_fd_sc_hd__and3_1
*I *1320:A I *D sky130_fd_sc_hd__and3_1
*I *1352:A I *D sky130_fd_sc_hd__and3_1
*I *967:A I *D sky130_fd_sc_hd__and2_0
*CAP
1 data_in[27] 0.0009338
2 *1192:A 0
3 *1288:A 7.48448e-05
4 *1224:A 0
5 *999:A 0.000390372
6 *1256:A 0.000509309
7 *1320:A 0.000106879
8 *1352:A 0
9 *967:A 0
10 *20:68 0.00107955
11 *20:55 0.000525959
12 *20:42 0.000484723
13 *20:36 0.000278323
14 *20:34 0.000572728
15 *20:21 0.00108973
16 *20:15 0.00155845
17 *999:A *1416:D 3.30578e-05
18 *999:A *1608:D 3.13215e-05
19 *999:A *1608:DE 0.000132918
20 *999:A *2270:A 3.00174e-06
21 *999:A *418:215 1.65764e-05
22 *999:A *857:175 9.85391e-05
23 *999:A *862:60 2.1558e-06
24 *999:A *867:141 0
25 *999:A *875:189 0.000119367
26 *999:A *877:200 5.20546e-06
27 *1256:A *1544:D 0.000308743
28 *1256:A *1608:CLK 6.5895e-05
29 *1256:A *1608:D 5.49079e-06
30 *1256:A *1608:DE 4.13873e-06
31 *1256:A *867:67 7.51524e-05
32 *1256:A *875:166 0.000110529
33 *1256:A *875:173 5.76339e-05
34 *1256:A *875:211 3.99086e-06
35 *1256:A *892:149 0.000216535
36 *1288:A *1224:B 3.14978e-05
37 *1288:A *1288:C 6.50727e-05
38 *1288:A *1512:D 0.000167076
39 *1288:A *418:230 0.00014489
40 *1288:A *424:364 0.000171273
41 *1288:A *882:107 2.82583e-05
42 *1320:A *1320:B 3.85659e-05
43 *1320:A *875:211 7.90116e-05
44 *1320:A *875:230 0.000129609
45 *20:15 *1576:CLK 0
46 *20:15 *1576:DE 3.45933e-05
47 *20:15 *32:15 0.000240954
48 *20:21 *1035:A0 0
49 *20:21 *1037:A1 0.000146384
50 *20:21 *1363:B 9.3688e-05
51 *20:21 *1576:CLK 0
52 *20:34 *1036:A1 0
53 *20:34 *1037:A0 4.37789e-05
54 *20:34 *1037:A1 4.02636e-05
55 *20:34 *423:169 0
56 *20:34 *882:107 0.000236019
57 *20:34 *892:155 0
58 *20:36 *882:107 1.09551e-05
59 *20:42 *1640:D 1.07248e-05
60 *20:42 *418:215 8.531e-05
61 *20:42 *423:169 0
62 *20:55 *1288:B 8.96126e-06
63 *20:55 *1352:C 1.92336e-05
64 *20:55 *1640:D 0.000164843
65 *20:55 *418:215 5.01724e-05
66 *20:55 *541:14 0.000132219
67 *20:55 *867:79 4.12111e-05
68 *20:68 *1608:D 0.000107123
69 *20:68 *418:215 7.45722e-06
70 *20:68 *867:79 6.26582e-05
71 *20:68 *867:141 1.02227e-05
*RES
1 data_in[27] *20:15 23.1643 
2 *20:15 *20:21 19.9394 
3 *20:21 *967:A 13.7491 
4 *20:21 *20:34 16.3387 
5 *20:34 *20:36 0.988641 
6 *20:36 *20:42 14.9845 
7 *20:42 *1352:A 9.24915 
8 *20:42 *20:55 12.4834 
9 *20:55 *1320:A 17.2697 
10 *20:55 *20:68 5.56926 
11 *20:68 *1256:A 26.7703 
12 *20:68 *999:A 25.0248 
13 *20:36 *1224:A 9.24915 
14 *20:34 *1288:A 14.4094 
15 *20:15 *1192:A 9.24915 
*END

*D_NET *21 0.00850282
*CONN
*P data_in[28] I
*I *1000:A I *D sky130_fd_sc_hd__and3_1
*I *1321:A I *D sky130_fd_sc_hd__and3_1
*I *1257:A I *D sky130_fd_sc_hd__and3_1
*I *1353:A I *D sky130_fd_sc_hd__and3_1
*I *1289:A I *D sky130_fd_sc_hd__and3_1
*I *1225:A I *D sky130_fd_sc_hd__and2_0
*I *1193:A I *D sky130_fd_sc_hd__and3_1
*I *968:A I *D sky130_fd_sc_hd__and2_0
*CAP
1 data_in[28] 0.000752729
2 *1000:A 2.26767e-05
3 *1321:A 0
4 *1257:A 0
5 *1353:A 3.65243e-05
6 *1289:A 0
7 *1225:A 1.96859e-05
8 *1193:A 0.000189869
9 *968:A 0.000108081
10 *21:45 0.000340702
11 *21:41 0.000346982
12 *21:37 0.000723933
13 *21:33 0.000828148
14 *21:27 0.000675204
15 *21:21 0.000623466
16 *21:13 0.0010759
17 *968:A *1385:D 6.50727e-05
18 *968:A *418:360 3.83429e-05
19 *968:A *423:335 0.000111708
20 *968:A *423:352 5.08751e-05
21 *968:A *887:258 6.08467e-05
22 *1000:A *1000:C 6.27782e-05
23 *1193:A *1017:A1 0
24 *1193:A *1385:D 1.47712e-05
25 *1193:A *858:337 0.000122083
26 *1193:A *876:81 7.55502e-05
27 *1193:A *887:258 7.14746e-05
28 *1193:A *887:340 0
29 *1225:A *418:360 2.16355e-05
30 *1225:A *887:258 1.92172e-05
31 *1353:A *417:526 1.21461e-06
32 *21:13 *417:539 3.02603e-05
33 *21:21 *1000:C 6.93171e-05
34 *21:21 *1321:C 6.89596e-05
35 *21:21 *417:539 8.36429e-06
36 *21:27 *1609:CLK 0.00015409
37 *21:27 *126:35 0.000141368
38 *21:27 *427:316 0
39 *21:33 *1609:CLK 4.43174e-05
40 *21:33 *126:35 0.000264304
41 *21:33 *887:362 0.000140951
42 *21:33 *887:371 0.000187946
43 *21:37 *1289:B 0.000156948
44 *21:37 *417:526 0.000102338
45 *21:37 *872:69 7.55529e-05
46 *21:37 *872:153 5.98834e-05
47 *21:37 *876:81 1.03594e-05
48 *21:37 *887:351 0
49 *21:37 *887:362 0
50 *21:41 *1513:D 0
51 *21:41 *876:81 0.000400178
52 *21:41 *887:340 0
53 *21:41 *887:351 0
54 *21:45 *418:360 2.42273e-05
55 *21:45 *887:258 0.000103983
*RES
1 data_in[28] *21:13 14.6446 
2 *21:13 *21:21 9.85252 
3 *21:21 *21:27 13.7022 
4 *21:27 *21:33 15.366 
5 *21:33 *21:37 17.9591 
6 *21:37 *21:41 12.1455 
7 *21:41 *21:45 1.85672 
8 *21:45 *968:A 12.7456 
9 *21:45 *1193:A 23.8184 
10 *21:41 *1225:A 9.97254 
11 *21:37 *1289:A 13.7491 
12 *21:33 *1353:A 9.97254 
13 *21:27 *1257:A 13.7491 
14 *21:21 *1321:A 9.24915 
15 *21:13 *1000:A 14.4725 
*END

*D_NET *22 0.0174151
*CONN
*P data_in[29] I
*I *1290:A I *D sky130_fd_sc_hd__and3_1
*I *1226:A I *D sky130_fd_sc_hd__and2_0
*I *1194:A I *D sky130_fd_sc_hd__and3_1
*I *969:A I *D sky130_fd_sc_hd__and2_0
*I *1322:A I *D sky130_fd_sc_hd__and3_1
*I *1354:A I *D sky130_fd_sc_hd__and3_1
*I *1001:A I *D sky130_fd_sc_hd__and3_1
*I *1258:A I *D sky130_fd_sc_hd__and3_1
*CAP
1 data_in[29] 0.0028366
2 *1290:A 0.000189506
3 *1226:A 0
4 *1194:A 0.000116087
5 *969:A 0
6 *1322:A 0.00019239
7 *1354:A 2.04786e-05
8 *1001:A 0
9 *1258:A 8.45223e-05
10 *22:70 0.000829653
11 *22:54 0.000914056
12 *22:45 0.000309832
13 *22:41 0.000757368
14 *22:35 0.000542285
15 *22:31 0.00047401
16 *22:23 0.000455244
17 *22:17 0.00326212
18 *1194:A *969:B 6.24655e-05
19 *1194:A *1386:D 6.46815e-05
20 *1194:A *418:320 0.000156076
21 *1258:A *952:A 0.000256717
22 *1258:A *1258:C 0.00011841
23 *1290:A *1290:C 7.85066e-05
24 *1290:A *1578:D 0.000264586
25 *1290:A *1683:A 0
26 *1290:A *2276:A 0.000323465
27 *1290:A *421:137 3.62662e-06
28 *1322:A *1258:C 3.04234e-05
29 *1322:A *1322:B 0.000163198
30 *1322:A *69:183 3.74005e-05
31 *1322:A *417:67 6.13051e-05
32 *1322:A *875:426 0.000520007
33 *1354:A *952:A 6.50727e-05
34 *22:17 *944:B 2.45467e-05
35 *22:17 *83:13 7.18246e-05
36 *22:17 *83:44 1.5714e-05
37 *22:17 *879:16 2.1558e-06
38 *22:23 *1514:D 0.000187627
39 *22:23 *83:44 0.000189255
40 *22:23 *418:16 0.000109421
41 *22:23 *879:16 5.17049e-05
42 *22:31 *1386:D 0.000111362
43 *22:31 *1514:D 6.27782e-05
44 *22:31 *1514:DE 3.5925e-05
45 *22:31 *418:16 6.27782e-05
46 *22:31 *418:20 4.28349e-06
47 *22:35 *969:B 3.14978e-05
48 *22:35 *417:57 3.99086e-06
49 *22:35 *417:268 6.12686e-06
50 *22:41 *1514:DE 0.000290364
51 *22:41 *417:57 0.000113968
52 *22:41 *421:51 0.000289819
53 *22:45 *1514:DE 8.57722e-05
54 *22:45 *421:51 4.59532e-05
55 *22:45 *421:53 3.78818e-05
56 *22:54 *952:A 0.000160617
57 *22:70 *1001:B 2.20821e-05
58 *22:70 *1001:C 0.000211492
59 *22:70 *1514:DE 0.000101133
60 *22:70 *1546:D 0.000803588
61 *22:70 *83:65 3.92275e-05
62 *22:70 *421:67 0.000414808
63 *22:70 *874:28 0.000278822
64 *22:70 *875:44 0.000280321
65 *22:70 *879:22 7.81552e-05
*RES
1 data_in[29] *22:17 11.1402 
2 *22:17 *22:23 12.044 
3 *22:23 *22:31 15.2927 
4 *22:31 *22:35 3.23117 
5 *22:35 *22:41 18.4066 
6 *22:41 *22:45 8.82351 
7 *22:45 *1258:A 12.191 
8 *22:45 *22:54 1.8326 
9 *22:54 *22:70 40.8525 
10 *22:70 *1001:A 9.24915 
11 *22:54 *1354:A 9.97254 
12 *22:41 *1322:A 21.7065 
13 *22:35 *969:A 9.24915 
14 *22:31 *1194:A 12.7456 
15 *22:23 *1226:A 9.24915 
16 *22:17 *1290:A 20.2356 
*END

*D_NET *23 0.0114587
*CONN
*P data_in[2] I
*I *1295:A I *D sky130_fd_sc_hd__and3_1
*I *1327:A I *D sky130_fd_sc_hd__and3_1
*I *1231:A I *D sky130_fd_sc_hd__and3_1
*I *974:A I *D sky130_fd_sc_hd__and3_1
*I *1359:A I *D sky130_fd_sc_hd__and2_0
*I *1199:A I *D sky130_fd_sc_hd__and2_0
*I *1263:A I *D sky130_fd_sc_hd__and3_1
*I *1167:A I *D sky130_fd_sc_hd__and3_1
*CAP
1 data_in[2] 0.000734513
2 *1295:A 0
3 *1327:A 0.000202369
4 *1231:A 0.000641612
5 *974:A 9.34923e-06
6 *1359:A 0.000387756
7 *1199:A 8.70498e-05
8 *1263:A 2.60774e-05
9 *1167:A 4.23595e-05
10 *23:87 0.000202369
11 *23:29 0.000109008
12 *23:27 0.000518307
13 *23:25 0.00116246
14 *23:21 0.000945694
15 *23:15 0.00126897
16 *23:13 0.000809544
17 *974:A *871:8 6.50727e-05
18 *974:A *872:67 6.50727e-05
19 *1167:A *1216:B 0.00012568
20 *1167:A *880:29 0.000122068
21 *1199:A *1487:D 0.000175485
22 *1199:A *880:21 0.000377259
23 *1231:A *1231:B 1.26143e-06
24 *1231:A *1231:C 0.000300212
25 *1231:A *1519:D 1.04235e-05
26 *1231:A *1615:D 0.000308814
27 *1263:A *418:326 0.000107496
28 *1263:A *876:6 0.000107496
29 *1327:A *1327:C 2.23105e-05
30 *1327:A *427:301 0.000457582
31 *1359:A *886:228 0.000242975
32 *1359:A *887:293 6.27718e-05
33 *1359:A *906:37 7.82074e-05
34 *23:13 *864:10 5.43299e-05
35 *23:15 *864:10 2.15326e-05
36 *23:21 *1327:C 0
37 *23:21 *1391:DE 0.00014638
38 *23:21 *1583:D 0
39 *23:21 *1615:CLK 0.000381983
40 *23:21 *861:13 9.46476e-05
41 *23:21 *864:10 1.0867e-05
42 *23:21 *864:20 1.9033e-05
43 *23:21 *887:293 8.59422e-05
44 *23:21 *887:306 0.000302934
45 *23:25 *871:19 0
46 *23:25 *887:293 0.000252043
47 *23:27 *1487:CLK 0
48 *23:27 *121:59 0.000104228
49 *23:27 *417:307 3.92275e-05
50 *23:27 *418:320 1.35062e-05
51 *23:27 *887:287 0
52 *23:29 *1216:B 2.24484e-05
53 *23:29 *121:59 1.55462e-05
54 *23:29 *417:307 7.77309e-06
55 *23:29 *880:29 5.05252e-05
56 *11:17 *23:13 5.81458e-05
*RES
1 data_in[2] *23:13 14.6446 
2 *23:13 *23:15 1.832 
3 *23:15 *23:21 19.3459 
4 *23:21 *23:25 10.8698 
5 *23:25 *23:27 8.89128 
6 *23:27 *23:29 1.41674 
7 *23:29 *1167:A 15.9964 
8 *23:29 *1263:A 15.0271 
9 *23:27 *1199:A 17.8002 
10 *23:25 *1359:A 23.9008 
11 *23:21 *974:A 14.4725 
12 *23:15 *1231:A 24.4795 
13 *23:13 *23:87 4.5 
14 *23:87 *1327:A 14.964 
15 *23:87 *1295:A 9.24915 
*END

*D_NET *24 0.0125254
*CONN
*P data_in[30] I
*I *1002:A I *D sky130_fd_sc_hd__and3_1
*I *1323:A I *D sky130_fd_sc_hd__and3_1
*I *1259:A I *D sky130_fd_sc_hd__and3_1
*I *1291:A I *D sky130_fd_sc_hd__and3_1
*I *1195:A I *D sky130_fd_sc_hd__and3_1
*I *1227:A I *D sky130_fd_sc_hd__and2_0
*I *970:A I *D sky130_fd_sc_hd__and2_0
*I *1355:A I *D sky130_fd_sc_hd__and3_1
*CAP
1 data_in[30] 0.00114429
2 *1002:A 0.00019422
3 *1323:A 0
4 *1259:A 0
5 *1291:A 0.000362662
6 *1195:A 0.000378477
7 *1227:A 0.000161812
8 *970:A 0
9 *1355:A 0
10 *24:64 0.00110558
11 *24:46 0.000403464
12 *24:40 0.00130675
13 *24:31 0.000927797
14 *24:25 0.000386999
15 *24:17 0.00149837
16 *1002:A *1323:B 1.43983e-05
17 *1002:A *1323:C 2.23105e-05
18 *1002:A *1419:D 0
19 *1002:A *1611:D 0.000108087
20 *1002:A *417:183 7.6719e-06
21 *1002:A *869:29 0.000108087
22 *1195:A *1156:S0 0.00025591
23 *1195:A *424:89 0.000107496
24 *1195:A *858:197 7.63195e-05
25 *1227:A *970:B 1.65872e-05
26 *1227:A *68:260 0.000557815
27 *1227:A *423:79 0.000557815
28 *1291:A *1291:C 7.63448e-05
29 *24:17 data_out[14] 0
30 *24:17 data_out[8] 0.000830263
31 *24:17 data_out[9] 0
32 *24:17 *1049:A1 0.000618609
33 *24:17 *1049:B1 6.92705e-05
34 *24:17 *1054:B1 1.92172e-05
35 *24:17 *1429:D 1.43983e-05
36 *24:17 *465:34 0
37 *24:17 *856:42 2.72876e-05
38 *24:17 *898:43 3.41255e-05
39 *24:25 *427:68 5.00906e-05
40 *24:25 *430:398 0
41 *24:25 *430:400 0
42 *24:31 *1259:C 6.89596e-05
43 *24:31 *1355:B 2.37827e-05
44 *24:31 *417:191 0.000127271
45 *24:31 *419:95 3.31745e-05
46 *24:40 *1355:B 1.40978e-05
47 *24:40 *1355:C 5.70084e-05
48 *24:40 *419:95 6.50727e-05
49 *24:46 *1156:A1 7.09666e-06
50 *24:46 *1156:S0 0
51 *24:46 *69:57 5.47232e-06
52 *24:46 *69:65 5.07505e-05
53 *24:64 *1156:A1 0.000483975
54 *24:64 *1156:S0 0
55 *24:64 *69:57 0.000146167
*RES
1 data_in[30] *24:17 23.3922 
2 *24:17 *24:25 12.5252 
3 *24:25 *24:31 6.31766 
4 *24:31 *1355:A 9.24915 
5 *24:31 *24:40 19.0885 
6 *24:40 *24:46 10.3802 
7 *24:46 *970:A 9.24915 
8 *24:46 *1227:A 17.1824 
9 *24:40 *24:64 16.7483 
10 *24:64 *1195:A 28.8421 
11 *24:64 *1291:A 17.2065 
12 *24:25 *1259:A 9.24915 
13 *24:17 *1323:A 9.24915 
14 *24:17 *1002:A 15.5668 
*END

*D_NET *25 0.0172949
*CONN
*P data_in[31] I
*I *1196:A I *D sky130_fd_sc_hd__and3_1
*I *1292:A I *D sky130_fd_sc_hd__and3_1
*I *971:A I *D sky130_fd_sc_hd__and2_0
*I *1228:A I *D sky130_fd_sc_hd__and2_0
*I *1003:A I *D sky130_fd_sc_hd__and3_1
*I *1260:A I *D sky130_fd_sc_hd__and3_1
*I *1324:A I *D sky130_fd_sc_hd__and3_1
*I *1356:A I *D sky130_fd_sc_hd__and3_1
*CAP
1 data_in[31] 0.00427725
2 *1196:A 0.000277982
3 *1292:A 2.51978e-05
4 *971:A 2.12792e-05
5 *1228:A 0.000137841
6 *1003:A 0
7 *1260:A 1.74177e-05
8 *1324:A 0.00012188
9 *1356:A 2.71263e-05
10 *25:64 0.000400602
11 *25:47 0.00057278
12 *25:39 0.00111816
13 *25:27 0.00125696
14 *25:23 0.000495657
15 *25:19 0.000281181
16 *25:15 0.00462215
17 *1196:A *1162:A1 6.08467e-05
18 *1196:A *1580:CLK 3.44095e-05
19 *1196:A *529:10 0.000394025
20 *1196:A *876:131 0.000314021
21 *1196:A *889:29 1.47102e-05
22 *1196:A *889:57 2.50518e-05
23 *1196:A *905:22 0.000128067
24 *1228:A *1161:A0 0
25 *1228:A *860:48 0
26 *1260:A *875:343 4.07851e-06
27 *1292:A *423:377 2.30636e-05
28 *1324:A *874:280 2.84892e-05
29 *1324:A *874:295 9.90059e-05
30 *1324:A *875:330 8.19299e-05
31 *1324:A *875:343 0.000223773
32 *1356:A *890:197 6.27718e-05
33 *25:15 *2293:A 0
34 *25:19 *1580:CLK 6.34651e-06
35 *25:19 *121:148 0.000124976
36 *25:19 *905:22 5.47683e-05
37 *25:23 *423:377 0.000301926
38 *25:27 *1161:A0 1.85358e-05
39 *25:39 *1003:C 7.26606e-05
40 *25:39 *1593:DE 0
41 *25:39 *871:105 0.000325134
42 *25:39 *879:81 9.70025e-06
43 *25:47 *1117:A1 8.62625e-06
44 *25:47 *1356:C 0.000166519
45 *25:47 *874:295 9.1278e-05
46 *25:47 *874:306 0.000399736
47 *25:47 *875:354 0
48 *25:47 *879:85 0.000171288
49 *25:47 *890:197 5.48238e-05
50 *25:64 *1548:CLK 0.000118017
51 *25:64 *856:320 0
52 *25:64 *871:65 5.36762e-05
53 *25:64 *871:84 5.04829e-06
54 *25:64 *874:295 0.000117426
55 *25:64 *875:343 4.66889e-05
56 *14:9 *25:15 0
*RES
1 data_in[31] *25:15 14.2254 
2 *25:15 *25:19 6.95487 
3 *25:19 *25:23 5.18434 
4 *25:23 *25:27 11.324 
5 *25:27 *25:39 29.1132 
6 *25:39 *25:47 14.6939 
7 *25:47 *1356:A 14.4725 
8 *25:47 *25:64 12.3412 
9 *25:64 *1324:A 14.9881 
10 *25:64 *1260:A 9.82786 
11 *25:39 *1003:A 9.24915 
12 *25:27 *1228:A 17.2421 
13 *25:23 *971:A 9.82786 
14 *25:19 *1292:A 9.97254 
15 *25:15 *1196:A 25.6477 
*END

*D_NET *26 0.0215229
*CONN
*P data_in[3] I
*I *1328:A I *D sky130_fd_sc_hd__and3_1
*I *1296:A I *D sky130_fd_sc_hd__and3_1
*I *975:A I *D sky130_fd_sc_hd__and3_1
*I *1200:A I *D sky130_fd_sc_hd__and2_0
*I *1360:A I *D sky130_fd_sc_hd__and2_0
*I *1264:A I *D sky130_fd_sc_hd__and3_1
*I *1168:A I *D sky130_fd_sc_hd__and3_1
*I *1232:A I *D sky130_fd_sc_hd__and3_1
*CAP
1 data_in[3] 0.00265704
2 *1328:A 0
3 *1296:A 4.90828e-05
4 *975:A 7.71924e-05
5 *1200:A 1.98947e-05
6 *1360:A 0.000174824
7 *1264:A 0.000534147
8 *1168:A 0
9 *1232:A 0
10 *26:78 0.000249513
11 *26:38 0.000573267
12 *26:32 0.000319703
13 *26:26 0.000428791
14 *26:24 0.000426375
15 *26:22 0.00011024
16 *26:15 0.00276728
17 *1200:A *1200:B 6.08467e-05
18 *1200:A *459:18 2.16355e-05
19 *1264:A *1264:C 0.000207266
20 *1264:A *1488:DE 0.000309756
21 *1264:A *1507:CLK 4.53208e-05
22 *1264:A *424:223 4.66492e-05
23 *1264:A *459:18 9.47057e-05
24 *1264:A *857:45 0.000733727
25 *1264:A *865:336 0.00014642
26 *1264:A *874:54 1.56559e-05
27 *1264:A *884:223 8.52652e-05
28 *1264:A *884:236 0.000146609
29 *1264:A *884:245 0.000190214
30 *1264:A *884:260 0.000184911
31 *1296:A *1520:D 0.000119486
32 *1296:A *423:30 0
33 *1296:A *875:52 8.92615e-05
34 *1360:A *1648:D 0.00021569
35 *1360:A *424:223 2.51237e-05
36 *1360:A *874:54 6.08467e-05
37 *26:15 data_out[19] 0.000404895
38 *26:15 data_out[7] 0.00162137
39 *26:15 *69:187 1.91246e-05
40 *26:15 *423:36 1.5714e-05
41 *26:15 *509:18 0.00101441
42 *26:15 *557:18 0.00526881
43 *26:22 *1232:C 0.000296703
44 *26:22 *1367:B 0.000109427
45 *26:22 *856:22 0.000150747
46 *26:22 *875:67 6.08467e-05
47 *26:26 *1040:A1 0
48 *26:26 *418:50 0
49 *26:26 *423:36 0
50 *26:26 *874:40 0.000182885
51 *26:26 *874:44 0.000328893
52 *26:26 *875:52 2.86829e-05
53 *26:32 *418:50 2.63369e-05
54 *26:32 *459:18 9.24241e-05
55 *26:32 *874:44 3.25307e-05
56 *26:32 *874:54 2.09495e-05
57 *26:38 *424:223 6.50586e-05
58 *26:38 *459:18 8.16827e-05
59 *26:38 *874:54 8.92561e-05
60 *26:78 *1520:D 0.000160262
61 *26:78 *874:40 2.98196e-05
62 *26:78 *875:52 0.000235351
*RES
1 data_in[3] *26:15 20.2264 
2 *26:15 *1232:A 9.24915 
3 *26:15 *26:22 5.16022 
4 *26:22 *26:24 4.5 
5 *26:24 *26:26 9.72179 
6 *26:26 *26:32 3.56628 
7 *26:32 *26:38 6.64014 
8 *26:38 *1168:A 9.24915 
9 *26:38 *1264:A 39.8102 
10 *26:32 *1360:A 18.3548 
11 *26:26 *1200:A 14.4725 
12 *26:24 *26:78 4.73876 
13 *26:78 *975:A 15.0271 
14 *26:78 *1296:A 15.9964 
15 *26:22 *1328:A 9.24915 
*END

*D_NET *27 0.00909908
*CONN
*P data_in[4] I
*I *976:A I *D sky130_fd_sc_hd__and3_1
*I *1329:A I *D sky130_fd_sc_hd__and3_1
*I *1233:A I *D sky130_fd_sc_hd__and3_1
*I *1265:A I *D sky130_fd_sc_hd__and3_1
*I *1201:A I *D sky130_fd_sc_hd__and2_0
*I *1361:A I *D sky130_fd_sc_hd__and2_0
*I *1169:A I *D sky130_fd_sc_hd__and3_1
*I *1297:A I *D sky130_fd_sc_hd__and3_1
*CAP
1 data_in[4] 0.00100427
2 *976:A 3.86744e-05
3 *1329:A 0
4 *1233:A 9.34689e-05
5 *1265:A 0
6 *1201:A 0
7 *1361:A 6.5953e-05
8 *1169:A 0.000156265
9 *1297:A 8.50396e-05
10 *27:78 9.34689e-05
11 *27:44 0.000738182
12 *27:42 0.000945907
13 *27:36 0.000708709
14 *27:32 0.000502209
15 *27:28 0.000295864
16 *27:15 0.00112306
17 *976:A *1297:C 4.66492e-05
18 *976:A *1393:CLK 4.58003e-05
19 *1169:A *966:B 2.43314e-05
20 *1169:A *876:357 0.000319801
21 *1169:A *888:219 0
22 *1233:A *427:366 0.000128285
23 *1233:A *427:373 0.000337516
24 *1233:A *878:129 0.000190979
25 *1297:A *1297:C 6.28425e-05
26 *1297:A *1393:CLK 0.000213725
27 *1297:A *417:489 1.19721e-05
28 *1361:A *423:462 0.000118166
29 *1361:A *876:357 7.02172e-06
30 *27:15 *1585:D 0.000152779
31 *27:15 *1585:DE 1.68821e-05
32 *27:15 *417:487 0
33 *27:28 *1297:C 0.000118166
34 *27:28 *1393:CLK 4.33655e-05
35 *27:32 *1297:C 0.000337746
36 *27:32 *1521:DE 6.9562e-05
37 *27:32 *1585:DE 0
38 *27:32 *417:487 5.93547e-06
39 *27:32 *864:53 9.58043e-06
40 *27:36 *1297:C 2.86829e-05
41 *27:36 *1617:D 0
42 *27:36 *864:53 0.00011041
43 *27:36 *864:61 1.66626e-05
44 *27:36 *888:138 0
45 *27:42 *1265:B 3.63947e-05
46 *27:42 *870:8 4.34841e-05
47 *27:42 *888:132 0
48 *27:42 *888:138 4.47578e-05
49 *27:44 *966:B 0.000525732
50 *27:44 *1025:S0 4.75721e-06
51 *27:44 *1130:A0 0
52 *27:44 *1489:D 2.50202e-05
53 *27:44 *1553:DE 0
54 *27:44 *1649:D 0.000141208
55 *27:44 *2292:A 0
56 *27:44 *858:402 9.79693e-06
57 *27:44 *888:132 0
58 *27:44 *888:217 0
59 *27:44 *888:219 0
*RES
1 data_in[4] *27:15 25.3733 
2 *27:15 *1297:A 12.7697 
3 *27:15 *27:28 1.85672 
4 *27:28 *27:32 11.315 
5 *27:32 *27:36 11.315 
6 *27:36 *27:42 15.2295 
7 *27:42 *27:44 13.4591 
8 *27:44 *1169:A 18.6623 
9 *27:44 *1361:A 15.5817 
10 *27:42 *1201:A 13.7491 
11 *27:36 *1265:A 9.24915 
12 *27:32 *27:78 4.5 
13 *27:78 *1233:A 14.4094 
14 *27:78 *1329:A 9.24915 
15 *27:28 *976:A 10.5271 
*END

*D_NET *28 0.0141002
*CONN
*P data_in[5] I
*I *1266:A I *D sky130_fd_sc_hd__and3_1
*I *1202:A I *D sky130_fd_sc_hd__and2_0
*I *1362:A I *D sky130_fd_sc_hd__and2_0
*I *1298:A I *D sky130_fd_sc_hd__and3_1
*I *977:A I *D sky130_fd_sc_hd__and3_1
*I *1330:A I *D sky130_fd_sc_hd__and3_1
*I *1170:A I *D sky130_fd_sc_hd__and3_1
*I *1234:A I *D sky130_fd_sc_hd__and3_1
*CAP
1 data_in[5] 0.00143405
2 *1266:A 0.000491004
3 *1202:A 0
4 *1362:A 7.28717e-05
5 *1298:A 0
6 *977:A 0.00022245
7 *1330:A 0
8 *1170:A 0.000943622
9 *1234:A 4.84086e-05
10 *28:91 0.000587635
11 *28:76 0.00155509
12 *28:63 0.00161455
13 *28:41 0.00022245
14 *28:15 0.00113677
15 *28:13 0.000158667
16 *28:11 0.00167694
17 *977:A *977:B 1.03403e-05
18 *977:A *1330:B 1.43983e-05
19 *977:A *1330:C 0.000305679
20 *1170:A *1144:A2 0
21 *1170:A *417:195 0.000134071
22 *1170:A *427:88 2.68928e-05
23 *1234:A *1144:A2 8.13812e-06
24 *1234:A *427:88 6.92705e-05
25 *1234:A *894:300 6.50586e-05
26 *1266:A *1030:S1 0.00011081
27 *1266:A *1202:B 6.53968e-05
28 *1266:A *68:260 2.1667e-05
29 *1266:A *68:264 0.000421973
30 *1266:A *69:65 1.43698e-05
31 *1266:A *424:99 0.00044364
32 *1362:A *423:104 9.0951e-05
33 *1362:A *894:253 0
34 *28:11 data_out[27] 0.000811618
35 *28:11 data_out[5] 0
36 *28:11 *1034:A2 8.6323e-05
37 *28:13 *1586:CLK 2.60879e-06
38 *28:13 *417:195 1.91246e-05
39 *28:15 *1144:A2 0
40 *28:15 *1522:D 7.7321e-05
41 *28:15 *1586:CLK 4.03785e-05
42 *28:15 *417:195 0.000376063
43 *28:15 *894:300 1.46079e-05
44 *28:63 *1586:CLK 4.2598e-05
45 *28:63 *1586:D 7.92757e-06
46 *28:63 *417:193 0.000272151
47 *28:63 *417:195 9.22349e-05
48 *28:63 *857:414 0
49 *28:76 *1031:A0 1.93103e-06
50 *28:76 *1298:C 3.79145e-06
51 *28:76 *1394:D 5.49029e-06
52 *28:76 *1394:DE 3.39878e-06
53 *28:76 *1586:D 0.000208627
54 *28:76 *69:65 4.90834e-05
55 *28:91 *69:65 1.77588e-05
*RES
1 data_in[5] *28:11 8.38721 
2 *28:11 *28:13 0.378612 
3 *28:13 *28:15 6.6074 
4 *28:15 *1234:A 15.584 
5 *28:15 *1170:A 34.1201 
6 *28:13 *28:41 4.5 
7 *28:41 *1330:A 9.24915 
8 *28:41 *977:A 15.5668 
9 *28:11 *28:63 11.8308 
10 *28:63 *1298:A 9.24915 
11 *28:63 *28:76 22.8352 
12 *28:76 *1362:A 20.0811 
13 *28:76 *28:91 1.85672 
14 *28:91 *1202:A 9.24915 
15 *28:91 *1266:A 34.2432 
*END

*D_NET *29 0.0106051
*CONN
*P data_in[6] I
*I *978:A I *D sky130_fd_sc_hd__and3_1
*I *1235:A I *D sky130_fd_sc_hd__and3_1
*I *1299:A I *D sky130_fd_sc_hd__and3_1
*I *1331:A I *D sky130_fd_sc_hd__and3_1
*I *1267:A I *D sky130_fd_sc_hd__and3_1
*I *1171:A I *D sky130_fd_sc_hd__and3_1
*I *1203:A I *D sky130_fd_sc_hd__and2_0
*I *1363:A I *D sky130_fd_sc_hd__and2_0
*CAP
1 data_in[6] 0.00101349
2 *978:A 0.000550624
3 *1235:A 0
4 *1299:A 0.000186749
5 *1331:A 0
6 *1267:A 2.45363e-05
7 *1171:A 0.000365297
8 *1203:A 3.7884e-05
9 *1363:A 3.61256e-05
10 *29:75 0.000392433
11 *29:71 0.000518541
12 *29:65 0.00115918
13 *29:41 0.000521427
14 *29:32 0.000249232
15 *29:28 0.000623375
16 *29:17 0.00129754
17 *978:A *1036:A3 0.000139985
18 *978:A *1587:DE 0.000187091
19 *978:A *858:47 3.23416e-05
20 *1171:A *1035:A3 0.000219898
21 *1171:A *1171:C 7.30104e-06
22 *1171:A *1267:C 2.89815e-05
23 *1171:A *1395:CLK 0
24 *1171:A *424:325 3.61531e-05
25 *1171:A *424:340 0.000704819
26 *1203:A *1203:B 4.31603e-06
27 *1267:A *1395:CLK 4.95892e-05
28 *1299:A *424:291 0
29 *1299:A *880:59 0.000391278
30 *29:28 *1363:B 0.000338737
31 *29:28 *858:47 7.22382e-05
32 *29:32 *1203:B 3.6455e-05
33 *29:41 *1203:B 2.82583e-05
34 *29:41 *1395:CLK 0.000212898
35 *29:41 *1491:D 0.00016195
36 *29:65 *1395:CLK 0
37 *29:65 *1491:D 0
38 *29:65 *858:47 7.02319e-05
39 *29:71 *1235:C 0.000353066
40 *29:71 *868:109 0.000167692
41 *29:75 *424:291 0
42 *29:75 *880:59 0.000385399
43 *15:17 *29:17 0
*RES
1 data_in[6] *29:17 16.9673 
2 *29:17 *1363:A 14.4725 
3 *29:17 *29:28 7.64553 
4 *29:28 *29:32 6.3326 
5 *29:32 *1203:A 10.2378 
6 *29:32 *29:41 4.60562 
7 *29:41 *1171:A 31.0874 
8 *29:41 *1267:A 9.97254 
9 *29:28 *29:65 6.39977 
10 *29:65 *29:71 14.1212 
11 *29:71 *29:75 11.315 
12 *29:75 *1331:A 13.7491 
13 *29:75 *1299:A 20.5642 
14 *29:71 *1235:A 9.24915 
15 *29:65 *978:A 24.5084 
*END

*D_NET *30 0.0128618
*CONN
*P data_in[7] I
*I *1300:A I *D sky130_fd_sc_hd__and3_1
*I *1204:A I *D sky130_fd_sc_hd__and2_0
*I *1268:A I *D sky130_fd_sc_hd__and3_1
*I *1172:A I *D sky130_fd_sc_hd__and3_1
*I *1364:A I *D sky130_fd_sc_hd__and2_0
*I *979:A I *D sky130_fd_sc_hd__and3_1
*I *1332:A I *D sky130_fd_sc_hd__and3_1
*I *1236:A I *D sky130_fd_sc_hd__and3_1
*CAP
1 data_in[7] 0.00154688
2 *1300:A 5.56393e-05
3 *1204:A 0.000252261
4 *1268:A 0.000139807
5 *1172:A 7.59571e-05
6 *1364:A 0.000125113
7 *979:A 4.56076e-05
8 *1332:A 0
9 *1236:A 0.000194489
10 *30:68 0.000256131
11 *30:64 0.000319874
12 *30:62 0.0017712
13 *30:43 0.00178217
14 *30:19 0.000331094
15 *30:17 0.00197047
16 *979:A *979:C 6.50586e-05
17 *979:A *427:41 7.5108e-05
18 *979:A *873:30 8.52652e-05
19 *1172:A *423:251 5.99691e-05
20 *1204:A *1652:D 0.000170775
21 *1204:A *1655:DE 9.29508e-05
22 *1204:A *70:40 8.89188e-05
23 *1204:A *858:263 5.22602e-05
24 *1236:A *869:10 3.27973e-05
25 *1236:A *869:12 3.37176e-05
26 *1268:A *873:42 5.44346e-05
27 *1300:A *427:41 0.00019609
28 *1300:A *873:30 0.000190075
29 *1364:A *1375:B 5.05502e-05
30 *1364:A *1652:D 3.00829e-05
31 *1364:A *423:251 0.000220738
32 *30:17 data_out[13] 0
33 *30:17 data_out[19] 0
34 *30:17 data_out[24] 0.000301701
35 *30:17 *1129:A2 0.000790303
36 *30:17 *1620:D 0
37 *30:17 *856:30 0
38 *30:19 *1620:D 0
39 *30:19 *856:30 0
40 *30:43 *979:C 6.12686e-06
41 *30:62 *1129:A2 0.00030365
42 *30:64 *1652:D 0.000435752
43 *30:64 *858:183 1.94614e-05
44 *30:64 *858:263 0.00041819
45 *30:68 *1652:D 9.78334e-05
46 *30:68 *70:44 6.03986e-06
47 *30:68 *858:183 0.000117277
*RES
1 data_in[7] *30:17 11.474 
2 *30:17 *30:19 3.493 
3 *30:19 *1236:A 19.2113 
4 *30:19 *1332:A 13.7491 
5 *30:17 *30:43 14.7148 
6 *30:43 *979:A 15.8893 
7 *30:43 *30:62 10.0765 
8 *30:62 *30:64 7.85315 
9 *30:64 *30:68 6.74725 
10 *30:68 *1364:A 13.903 
11 *30:68 *1172:A 11.0817 
12 *30:64 *1268:A 16.691 
13 *30:62 *1204:A 22.8481 
14 *30:43 *1300:A 17.2421 
*END

*D_NET *31 0.0104514
*CONN
*P data_in[8] I
*I *980:A I *D sky130_fd_sc_hd__and3_1
*I *1333:A I *D sky130_fd_sc_hd__and3_1
*I *1269:A I *D sky130_fd_sc_hd__and3_1
*I *1173:A I *D sky130_fd_sc_hd__and3_1
*I *1205:A I *D sky130_fd_sc_hd__and2_0
*I *1365:A I *D sky130_fd_sc_hd__and2_0
*I *1237:A I *D sky130_fd_sc_hd__and3_1
*I *1301:A I *D sky130_fd_sc_hd__and3_1
*CAP
1 data_in[8] 0.00149536
2 *980:A 0.000318133
3 *1333:A 0
4 *1269:A 0.000207922
5 *1173:A 0
6 *1205:A 0
7 *1365:A 0.000151197
8 *1237:A 5.33254e-05
9 *1301:A 0.000259359
10 *31:53 0.000312847
11 *31:47 0.000310166
12 *31:45 0.000634972
13 *31:43 0.00060444
14 *31:24 0.000432119
15 *31:20 0.000460141
16 *31:7 0.00184384
17 *980:A *980:B 9.19886e-06
18 *980:A *341:20 0.00013592
19 *980:A *427:431 0
20 *980:A *870:64 6.6516e-05
21 *980:A *870:76 0.000226147
22 *1237:A *427:431 2.57847e-05
23 *1237:A *870:76 6.98337e-06
24 *1237:A *870:82 2.55478e-05
25 *1301:A *1301:B 9.76996e-05
26 *1301:A *427:442 0.00014018
27 *1301:A *870:82 0
28 *1301:A *880:425 0.000213661
29 *1301:A *881:482 2.16355e-05
30 *1365:A *417:351 1.65872e-05
31 *1365:A *888:257 0.000426168
32 *31:20 *341:20 0.000139435
33 *31:20 *427:442 4.37969e-05
34 *31:20 *870:76 5.56367e-05
35 *31:20 *870:82 0
36 *31:24 *427:431 7.93303e-06
37 *31:24 *427:442 7.61995e-05
38 *31:24 *870:76 8.12793e-05
39 *31:43 *1333:B 1.92793e-05
40 *31:43 *1333:C 2.23105e-05
41 *31:43 *1621:D 2.29419e-05
42 *31:43 *341:20 3.74601e-05
43 *31:43 *427:431 4.99296e-05
44 *31:43 *878:154 0
45 *31:45 *1333:B 0.000178707
46 *31:45 *1461:D 0.000572775
47 *31:47 *1173:C 2.23105e-05
48 *31:47 *1333:B 4.30108e-05
49 *31:47 *1461:D 0.000166012
50 *31:47 *417:430 5.20546e-06
51 *31:53 *417:353 4.42142e-05
52 *31:53 *417:426 0.000276921
53 *31:53 *858:406 9.01449e-05
*RES
1 data_in[8] *31:7 7.71709 
2 *31:7 *1301:A 22.3257 
3 *31:7 *31:20 3.28538 
4 *31:20 *31:24 6.88721 
5 *31:24 *1237:A 11.1059 
6 *31:24 *31:43 16.7075 
7 *31:43 *31:45 10.7063 
8 *31:45 *31:47 4.05102 
9 *31:47 *31:53 14.9845 
10 *31:53 *1365:A 14.4094 
11 *31:53 *1205:A 9.24915 
12 *31:47 *1173:A 9.24915 
13 *31:45 *1269:A 22.9879 
14 *31:43 *1333:A 9.24915 
15 *31:20 *980:A 23.7791 
*END

*D_NET *32 0.0167042
*CONN
*P data_in[9] I
*I *1270:A I *D sky130_fd_sc_hd__and3_1
*I *1206:A I *D sky130_fd_sc_hd__and2_0
*I *1366:A I *D sky130_fd_sc_hd__and2_0
*I *1174:A I *D sky130_fd_sc_hd__and3_1
*I *1334:A I *D sky130_fd_sc_hd__and3_1
*I *981:A I *D sky130_fd_sc_hd__and3_1
*I *1302:A I *D sky130_fd_sc_hd__and3_1
*I *1238:A I *D sky130_fd_sc_hd__and3_1
*CAP
1 data_in[9] 0.00420704
2 *1270:A 0.000131799
3 *1206:A 0
4 *1366:A 0.000495753
5 *1174:A 0
6 *1334:A 0
7 *981:A 0.00017843
8 *1302:A 0
9 *1238:A 0
10 *32:82 0.000740075
11 *32:73 0.000808856
12 *32:59 0.00124904
13 *32:35 0.000283069
14 *32:31 0.000984999
15 *32:22 0.000484016
16 *32:15 0.0043634
17 *981:A *1334:C 2.23105e-05
18 *981:A *1622:D 5.31465e-05
19 *981:A *874:438 4.89251e-05
20 *981:A *874:451 0.000164257
21 *1270:A *1050:A2 6.18121e-05
22 *1366:A *1206:B 0
23 *1366:A *1494:CLK 6.52892e-05
24 *1366:A *1494:DE 0
25 *1366:A *1654:D 4.55853e-05
26 *1366:A *423:157 5.31465e-05
27 *1366:A *423:167 1.67853e-05
28 *1366:A *862:124 0
29 *1366:A *865:350 7.09148e-05
30 *1366:A *865:371 0
31 *32:15 *1079:A2 5.39224e-05
32 *32:15 *418:215 2.02035e-05
33 *32:15 *857:175 1.66771e-05
34 *32:22 *1238:B 1.31657e-05
35 *32:22 *1302:C 0.00036916
36 *32:22 *875:189 2.23105e-05
37 *32:31 *1302:C 0.000110116
38 *32:31 *1590:D 4.04995e-05
39 *32:35 *1334:C 3.5534e-06
40 *32:35 *1622:D 0
41 *32:59 *981:C 0
42 *32:59 *1051:A3 0
43 *32:59 *1398:CLK 0.000167661
44 *32:59 *1558:D 0
45 *32:59 *890:89 0.000126842
46 *32:73 *1050:A2 4.82162e-05
47 *32:73 *1174:B 0
48 *32:73 *1174:C 0.000103157
49 *32:73 *865:371 5.03285e-05
50 *32:73 *890:89 0
51 *32:82 *1206:B 6.08467e-05
52 *32:82 *1494:D 1.43848e-05
53 *32:82 *865:350 2.1801e-05
54 *32:82 *865:371 0.000691706
55 *20:15 *32:15 0.000240954
*RES
1 data_in[9] *32:15 18.2919 
2 *32:15 *1238:A 9.24915 
3 *32:15 *32:22 5.16022 
4 *32:22 *1302:A 9.24915 
5 *32:22 *32:31 12.4332 
6 *32:31 *32:35 6.74725 
7 *32:35 *981:A 15.5668 
8 *32:35 *1334:A 9.24915 
9 *32:31 *32:59 18.8628 
10 *32:59 *32:73 22.6024 
11 *32:73 *1174:A 9.24915 
12 *32:73 *32:82 9.47649 
13 *32:82 *1366:A 31.6417 
14 *32:82 *1206:A 9.24915 
15 *32:59 *1270:A 12.7456 
*END

*D_NET *33 0.00417116
*CONN
*P data_out[0] O
*I *1008:A1 I *D sky130_fd_sc_hd__o21ai_0
*I *1421:Q O *D sky130_fd_sc_hd__dfxtp_1
*CAP
1 data_out[0] 0.000621853
2 *1008:A1 0.000163489
3 *1421:Q 0.000341638
4 *33:10 0.00112698
5 data_out[0] data_out[23] 0.000929148
6 *1008:A1 *1009:B1 6.08467e-05
7 *1008:A1 *1038:A2 2.65667e-05
8 *1008:A1 *1038:B1 0.000115934
9 *1008:A1 *1083:B1 6.08467e-05
10 *1008:A1 *1123:A1 0.000270574
11 *1008:A1 *81:204 2.95757e-05
12 *1008:A1 *430:677 1.41689e-05
13 *1008:A1 *430:683 3.90689e-06
14 *1008:A1 *458:12 5.51483e-06
15 *1008:A1 *494:14 0.000115616
16 *33:10 *1123:A1 5.65354e-05
17 *33:10 *1421:D 0.000205006
18 *33:10 *494:14 2.29568e-05
*RES
1 *1421:Q *33:10 19.5639 
2 *33:10 data_out[0] 6.26211 
3 *33:10 *1008:A1 21.0827 
*END

*D_NET *34 0.00475548
*CONN
*P data_out[10] O
*I *1058:A1 I *D sky130_fd_sc_hd__o21ai_0
*I *1431:Q O *D sky130_fd_sc_hd__dfxtp_1
*CAP
1 data_out[10] 0.000160418
2 *1058:A1 0.000723747
3 *1431:Q 0.0010922
4 *34:8 0.00197637
5 data_out[10] data_out[2] 0.00034929
6 data_out[10] data_out[3] 0.00034929
7 *1058:A1 *1059:B1 7.34948e-06
8 *34:8 *1431:CLK 2.65667e-05
9 *34:8 *1431:D 7.02539e-05
*RES
1 *1431:Q *34:8 31.6653 
2 *34:8 *1058:A1 31.6885 
3 *34:8 data_out[10] 6.05071 
*END

*D_NET *35 0.00369783
*CONN
*P data_out[11] O
*I *1063:A1 I *D sky130_fd_sc_hd__o21ai_0
*I *1432:Q O *D sky130_fd_sc_hd__dfxtp_1
*CAP
1 data_out[11] 0.000514922
2 *1063:A1 0.000187174
3 *1432:Q 0.00107564
4 *35:8 0.00177774
5 data_out[11] data_out[20] 0
6 data_out[11] data_out[5] 0
7 *35:8 *1432:D 0.000123361
8 *35:8 *899:35 8.65484e-06
9 *35:8 *899:41 1.03403e-05
*RES
1 *1432:Q *35:8 26.056 
2 *35:8 data_out[11] 15.017 
3 *35:8 *1063:A1 13.8548 
*END

*D_NET *36 0.00484242
*CONN
*P data_out[12] O
*I *1068:A1 I *D sky130_fd_sc_hd__o21ai_0
*I *1433:Q O *D sky130_fd_sc_hd__dfxtp_1
*CAP
1 data_out[12] 0.000354978
2 *1068:A1 0.000287701
3 *1433:Q 0.000481926
4 *36:10 0.0011246
5 data_out[12] data_out[21] 0.000740449
6 *1068:A1 *1068:A2 6.50586e-05
7 *1068:A1 *1433:D 0
8 *1068:A1 *81:123 0.000118166
9 *1068:A1 *81:125 0
10 *1068:A1 *898:25 8.61791e-05
11 *1068:A1 *898:43 1.1573e-05
12 *36:10 *1433:D 0.000326259
13 *36:10 *81:125 0
14 *10:11 data_out[12] 0.00124553
*RES
1 *1433:Q *36:10 22.3341 
2 *36:10 data_out[12] 6.26211 
3 *36:10 *1068:A1 21.6345 
*END

*D_NET *37 0.00426065
*CONN
*P data_out[13] O
*I *1073:A1 I *D sky130_fd_sc_hd__o21ai_0
*I *1434:Q O *D sky130_fd_sc_hd__dfxtp_1
*CAP
1 data_out[13] 0.000630651
2 *1073:A1 0.000315793
3 *1434:Q 0.000389961
4 *37:10 0.00133641
5 data_out[13] data_out[22] 0.00034929
6 data_out[13] data_out[24] 0.000976076
7 *1073:A1 *1119:B1 0
8 *1073:A1 *1443:D 0
9 *1073:A1 *81:94 0
10 *1073:A1 *81:100 0
11 *37:10 *1434:D 0.00026247
12 *37:10 *81:94 0
13 *30:17 data_out[13] 0
*RES
1 *1434:Q *37:10 20.8124 
2 *37:10 *1073:A1 20.7718 
3 *37:10 data_out[13] 6.49158 
*END

*D_NET *38 0.00322954
*CONN
*P data_out[14] O
*I *1078:A1 I *D sky130_fd_sc_hd__o21ai_0
*I *1435:Q O *D sky130_fd_sc_hd__dfxtp_1
*CAP
1 data_out[14] 0.000440678
2 *1078:A1 9.75037e-05
3 *1435:Q 0.000796783
4 *38:8 0.00133496
5 data_out[14] data_out[20] 0.00034929
6 data_out[14] *430:436 0
7 *1078:A1 *430:436 0
8 *38:8 *1435:CLK 5.67857e-05
9 *38:8 *899:14 0.000153533
10 *24:17 data_out[14] 0
*RES
1 *1435:Q *38:8 26.1192 
2 *38:8 data_out[14] 6.0616 
3 *38:8 *1078:A1 15.9964 
*END

*D_NET *39 0.00422735
*CONN
*P data_out[15] O
*I *1083:A1 I *D sky130_fd_sc_hd__o21ai_0
*I *1436:Q O *D sky130_fd_sc_hd__dfxtp_1
*CAP
1 data_out[15] 0.00106259
2 *1083:A1 0.000285261
3 *1436:Q 0.00134785
4 data_out[15] data_out[23] 0.0007111
5 data_out[15] data_out[6] 0.000657531
6 data_out[15] *1038:A1 5.35277e-05
7 data_out[15] *1436:D 1.87611e-05
8 data_out[15] *899:49 4.04445e-05
9 data_out[15] *899:51 4.11642e-05
10 *1083:A1 *1083:A2 9.12416e-06
11 *1083:A1 *1421:D 0
12 *1083:A1 *857:414 0
*RES
1 *1436:Q data_out[15] 32.6205 
2 *1436:Q *1083:A1 32.1327 
*END

*D_NET *40 0.00401534
*CONN
*P data_out[16] O
*I *1088:A1 I *D sky130_fd_sc_hd__o21ai_0
*I *1437:Q O *D sky130_fd_sc_hd__dfxtp_1
*CAP
1 data_out[16] 0.000621689
2 *1088:A1 0.000147112
3 *1437:Q 0.000773676
4 *40:8 0.00154248
5 data_out[16] *1113:A2 0
6 data_out[16] *430:492 3.13693e-05
7 *1088:A1 *430:492 7.41458e-05
8 *40:8 *1437:D 0.000174412
9 *12:17 data_out[16] 0.000650456
*RES
1 *1437:Q *40:8 25.5646 
2 *40:8 *1088:A1 18.0727 
3 *40:8 data_out[16] 11.5364 
*END

*D_NET *41 0.00286946
*CONN
*P data_out[17] O
*I *1093:A1 I *D sky130_fd_sc_hd__o21ai_0
*I *1438:Q O *D sky130_fd_sc_hd__dfxtp_1
*CAP
1 data_out[17] 0.00054789
2 *1093:A1 0.00010234
3 *1438:Q 0.000484914
4 *41:10 0.00113514
5 data_out[17] data_out[27] 0.000380326
6 *1093:A1 *81:177 6.12569e-05
7 *1093:A1 *899:45 4.75721e-06
8 *1093:A1 *899:47 6.32486e-05
9 *41:10 *1438:D 6.97852e-05
10 *41:10 *81:177 9.34618e-06
11 *41:10 *899:45 1.04548e-05
*RES
1 *1438:Q *41:10 21.367 
2 *41:10 *1093:A1 17.4498 
3 *41:10 data_out[17] 5.95615 
*END

*D_NET *42 0.00276507
*CONN
*P data_out[18] O
*I *1098:A1 I *D sky130_fd_sc_hd__o21ai_0
*I *1439:Q O *D sky130_fd_sc_hd__dfxtp_1
*CAP
1 data_out[18] 0.000948706
2 *1098:A1 0.000187298
3 *1439:Q 8.55981e-05
4 *42:10 0.0012216
5 data_out[18] data_out[22] 0
6 data_out[18] *898:25 2.30048e-05
7 *1098:A1 *1098:A2 3.65423e-05
8 *1098:A1 *1099:A1 0
9 *1098:A1 *1439:D 0
10 *1098:A1 *81:104 0.000208586
11 *1098:A1 *430:358 0
12 *42:10 *1439:D 4.26566e-05
13 *42:10 *81:104 1.10793e-05
*RES
1 *1439:Q *42:10 15.9604 
2 *42:10 *1098:A1 19.3065 
3 *42:10 data_out[18] 6.72105 
*END

*D_NET *43 0.00299578
*CONN
*P data_out[19] O
*I *1103:A1 I *D sky130_fd_sc_hd__o21ai_0
*I *1440:Q O *D sky130_fd_sc_hd__dfxtp_1
*CAP
1 data_out[19] 0.000822964
2 *1103:A1 9.47128e-05
3 *1440:Q 0.000298157
4 *43:10 0.00121583
5 *1103:A1 *1104:B1 0
6 *1103:A1 *81:80 0
7 *1103:A1 *81:86 1.44467e-05
8 *43:10 *1440:D 0.000144769
9 *26:15 data_out[19] 0.000404895
10 *30:17 data_out[19] 0
*RES
1 *1440:Q *43:10 18.7334 
2 *43:10 *1103:A1 15.7888 
3 *43:10 data_out[19] 6.72105 
*END

*D_NET *44 0.00486876
*CONN
*P data_out[1] O
*I *1013:A1 I *D sky130_fd_sc_hd__o21ai_0
*I *1422:Q O *D sky130_fd_sc_hd__dfxtp_1
*CAP
1 data_out[1] 0.000291196
2 *1013:A1 0.0004184
3 *1422:Q 0.000953279
4 *44:8 0.00166288
5 *44:8 *1014:B1 0.000844431
6 *10:11 data_out[1] 0.00034929
7 *12:17 data_out[1] 0.00034929
*RES
1 *1422:Q *44:8 32.2199 
2 *44:8 *1013:A1 24.4842 
3 *44:8 data_out[1] 9.37273 
*END

*D_NET *45 0.00410862
*CONN
*P data_out[20] O
*I *1108:A1 I *D sky130_fd_sc_hd__o21ai_0
*I *1441:Q O *D sky130_fd_sc_hd__dfxtp_1
*CAP
1 data_out[20] 0.00057813
2 *1108:A1 0
3 *1441:Q 0.00077924
4 *45:8 0.00135737
5 *45:8 *1109:B1 0.00104459
6 data_out[11] data_out[20] 0
7 data_out[14] data_out[20] 0.00034929
*RES
1 *1441:Q *45:8 23.1625 
2 *45:8 data_out[20] 18.8992 
3 *45:8 *1108:A1 9.24915 
*END

*D_NET *46 0.0033249
*CONN
*P data_out[21] O
*I *1113:A1 I *D sky130_fd_sc_hd__o21ai_0
*I *1442:Q O *D sky130_fd_sc_hd__dfxtp_1
*CAP
1 data_out[21] 0.0003863
2 *1113:A1 3.33235e-05
3 *1442:Q 0.000729807
4 *46:10 0.00114943
5 *1113:A1 *1113:A2 7.00991e-05
6 *46:10 *1113:A2 5.74984e-05
7 *46:10 *1442:D 0.000157992
8 data_out[12] data_out[21] 0.000740449
*RES
1 *1442:Q *46:10 25.1099 
2 *46:10 data_out[21] 5.5737 
3 *46:10 *1113:A1 14.9583 
*END

*D_NET *47 0.00369035
*CONN
*P data_out[22] O
*I *1118:A1 I *D sky130_fd_sc_hd__o21ai_0
*I *1443:Q O *D sky130_fd_sc_hd__dfxtp_1
*CAP
1 data_out[22] 0.000384308
2 *1118:A1 0.000181776
3 *1443:Q 0.00104689
4 *47:8 0.00161297
5 *47:8 *1443:D 0.000115114
6 data_out[13] data_out[22] 0.00034929
7 data_out[18] data_out[22] 0
*RES
1 *1443:Q *47:8 26.056 
2 *47:8 data_out[22] 14.1865 
3 *47:8 *1118:A1 13.8548 
*END

*D_NET *48 0.00507045
*CONN
*P data_out[23] O
*I *1123:A1 I *D sky130_fd_sc_hd__o21ai_0
*I *1444:Q O *D sky130_fd_sc_hd__dfxtp_1
*CAP
1 data_out[23] 0.000421889
2 *1123:A1 0.00028358
3 *1444:Q 0.000355092
4 *48:10 0.00106056
5 *1123:A1 *1094:A2 0
6 *1123:A1 *1123:B1 0.000107496
7 *1123:A1 *1124:B1 0.000468807
8 *1123:A1 *81:181 1.16596e-05
9 *1123:A1 *81:204 3.88655e-06
10 *1123:A1 *430:667 3.31733e-05
11 *1123:A1 *430:671 0.000127179
12 *1123:A1 *494:14 4.67418e-06
13 *48:10 *1124:B1 0.000160482
14 *48:10 *1444:D 1.71673e-05
15 *48:10 *494:14 4.74429e-05
16 data_out[0] data_out[23] 0.000929148
17 data_out[15] data_out[23] 0.0007111
18 *1008:A1 *1123:A1 0.000270574
19 *33:10 *1123:A1 5.65354e-05
*RES
1 *1444:Q *48:10 20.6703 
2 *48:10 data_out[23] 6.3386 
3 *48:10 *1123:A1 24.9566 
*END

*D_NET *49 0.00333558
*CONN
*P data_out[24] O
*I *1128:A1 I *D sky130_fd_sc_hd__o21ai_0
*I *1445:Q O *D sky130_fd_sc_hd__dfxtp_1
*CAP
1 data_out[24] 0.000464285
2 *1128:A1 0.000206211
3 *1445:Q 0.000259521
4 *49:8 0.000930017
5 *1128:A1 *1445:D 0
6 *1128:A1 *81:86 2.14842e-06
7 *1128:A1 *81:94 0
8 *49:8 *1445:D 0.000195621
9 data_out[13] data_out[24] 0.000976076
10 *30:17 data_out[24] 0.000301701
*RES
1 *1445:Q *49:8 18.3548 
2 *49:8 data_out[24] 6.3386 
3 *49:8 *1128:A1 18.2803 
*END

*D_NET *50 0.00364945
*CONN
*P data_out[25] O
*I *1133:A1 I *D sky130_fd_sc_hd__o21ai_0
*I *1446:Q O *D sky130_fd_sc_hd__dfxtp_1
*CAP
1 data_out[25] 0.000340123
2 *1133:A1 0.000213997
3 *1446:Q 0.000239033
4 *50:14 0.000793153
5 data_out[25] data_out[26] 0.000907323
6 data_out[25] data_out[29] 0.000391854
7 data_out[25] *54:14 1.03338e-05
8 *1133:A1 *1153:A1 0.000200452
9 *1133:A1 *81:19 6.2359e-05
10 *1133:A1 *901:102 3.5534e-06
11 *1133:A1 *901:117 6.53865e-05
12 *1133:A1 *901:123 0
13 *1133:A1 *901:132 0
14 *50:14 data_out[26] 0.000196397
15 *50:14 *1134:B1 4.47522e-05
16 *50:14 *1138:A1 1.16643e-05
17 *50:14 *1154:B1 9.26343e-05
18 *50:14 *54:14 7.6438e-05
*RES
1 *1446:Q *50:14 20.6821 
2 *50:14 data_out[25] 2.74034 
3 *50:14 *1133:A1 24.1406 
*END

*D_NET *51 0.0041056
*CONN
*P data_out[26] O
*I *1138:A1 I *D sky130_fd_sc_hd__o21ai_0
*I *1447:Q O *D sky130_fd_sc_hd__dfxtp_1
*CAP
1 data_out[26] 0.000522804
2 *1138:A1 0.000330038
3 *1447:Q 1.42942e-05
4 *51:8 0.000867137
5 data_out[26] data_out[4] 0.000806673
6 data_out[26] empty 0
7 data_out[26] *533:18 0
8 *1138:A1 *1134:B1 0
9 *1138:A1 *1154:A1 5.48642e-05
10 *1138:A1 *1154:A2 0
11 *1138:A1 *1154:B1 0.000302748
12 *1138:A1 *430:296 9.16621e-05
13 *1138:A1 *430:311 0
14 data_out[25] data_out[26] 0.000907323
15 *50:14 data_out[26] 0.000196397
16 *50:14 *1138:A1 1.16643e-05
*RES
1 *1447:Q *51:8 14.1278 
2 *51:8 *1138:A1 23.5827 
3 *51:8 data_out[26] 6.87403 
*END

*D_NET *52 0.0032186
*CONN
*P data_out[27] O
*I *1143:A1 I *D sky130_fd_sc_hd__o21ai_0
*I *1448:Q O *D sky130_fd_sc_hd__dfxtp_1
*CAP
1 data_out[27] 0.000314133
2 *1143:A1 9.47994e-05
3 *1448:Q 0.000498618
4 *52:10 0.00090755
5 *1143:A1 *81:177 3.90229e-05
6 *1143:A1 *899:43 3.9543e-05
7 *52:10 *1448:D 7.37653e-05
8 *52:10 *81:177 2.6637e-05
9 *52:10 *899:43 4.75721e-06
10 *52:10 *899:45 2.78348e-05
11 data_out[17] data_out[27] 0.000380326
12 *28:11 data_out[27] 0.000811618
*RES
1 *1448:Q *52:10 22.1975 
2 *52:10 data_out[27] 5.95615 
3 *52:10 *1143:A1 16.6193 
*END

*D_NET *53 0.00420431
*CONN
*P data_out[28] O
*I *1148:A1 I *D sky130_fd_sc_hd__o21ai_0
*I *1449:Q O *D sky130_fd_sc_hd__dfxtp_1
*CAP
1 data_out[28] 0.000976545
2 *1148:A1 0
3 *1449:Q 0.000184354
4 *53:12 0.0011609
5 data_out[28] data_out[2] 0
6 data_out[28] *1023:A1 0.00019549
7 data_out[28] *1023:A2 6.92705e-05
8 data_out[28] *72:13 0.00117032
9 data_out[28] *81:30 4.09471e-05
10 data_out[28] *81:37 0.000234268
11 *53:12 *1449:D 0.000113968
12 *53:12 *430:214 5.22654e-06
13 *53:12 *430:225 1.69932e-05
14 *53:12 *430:270 3.60268e-05
*RES
1 *1449:Q *53:12 22.1896 
2 *53:12 data_out[28] 22.1114 
3 *53:12 *1148:A1 9.24915 
*END

*D_NET *54 0.00347144
*CONN
*P data_out[29] O
*I *1153:A1 I *D sky130_fd_sc_hd__o21ai_0
*I *1450:Q O *D sky130_fd_sc_hd__dfxtp_1
*CAP
1 data_out[29] 0.00035086
2 *1153:A1 0.000266722
3 *1450:Q 0.000281449
4 *54:14 0.000899031
5 data_out[29] empty 0.000789633
6 *1153:A1 *901:102 5.78568e-05
7 *1153:A1 *901:123 0
8 *54:14 empty 8.17755e-05
9 *54:14 *1134:B1 7.86825e-06
10 *54:14 *1154:B1 1.66626e-05
11 *54:14 *1450:D 4.04995e-05
12 data_out[25] data_out[29] 0.000391854
13 data_out[25] *54:14 1.03338e-05
14 *1133:A1 *1153:A1 0.000200452
15 *50:14 *54:14 7.6438e-05
*RES
1 *1450:Q *54:14 20.0674 
2 *54:14 data_out[29] 2.66385 
3 *54:14 *1153:A1 24.864 
*END

*D_NET *55 0.00465624
*CONN
*P data_out[2] O
*I *1018:A1 I *D sky130_fd_sc_hd__o21ai_0
*I *1423:Q O *D sky130_fd_sc_hd__dfxtp_1
*CAP
1 data_out[2] 0.00137791
2 *1018:A1 0
3 *1423:Q 0.000328165
4 *55:10 0.00170607
5 data_out[2] data_out[3] 0.000277004
6 data_out[2] *1059:A2 0
7 data_out[2] *1424:D 6.85852e-05
8 data_out[2] *430:18 6.85852e-05
9 *55:10 *1423:D 0.000117715
10 *55:10 *1424:D 2.1667e-05
11 *55:10 *72:13 3.99086e-06
12 *55:10 *430:10 0.000184414
13 *55:10 *430:12 0.000142485
14 *55:10 *430:18 1.03594e-05
15 data_out[10] data_out[2] 0.00034929
16 data_out[28] data_out[2] 0
*RES
1 *1423:Q *55:10 22.1209 
2 *55:10 data_out[2] 9.00103 
3 *55:10 *1018:A1 13.7491 
*END

*D_NET *56 0.00323548
*CONN
*P data_out[30] O
*I *1158:A1 I *D sky130_fd_sc_hd__o21ai_0
*I *1451:Q O *D sky130_fd_sc_hd__dfxtp_1
*CAP
1 data_out[30] 0.00130157
2 *1158:A1 5.67174e-05
3 *1451:Q 0.00135828
4 data_out[30] data_out[9] 0
5 data_out[30] *1089:B1 0.000273916
6 *1158:A1 *1089:B1 0.000122497
7 *1158:A1 *1158:B1 0.000122497
*RES
1 *1451:Q *1158:A1 22.0188 
2 *1451:Q data_out[30] 24.2059 
*END

*D_NET *57 0.00384091
*CONN
*P data_out[31] O
*I *1163:A1 I *D sky130_fd_sc_hd__o21ai_0
*I *1452:Q O *D sky130_fd_sc_hd__dfxtp_1
*CAP
1 data_out[31] 0.000649428
2 *1163:A1 0.000254127
3 *1452:Q 0.000264309
4 *57:8 0.00116786
5 data_out[31] data_out[7] 0.00108591
6 data_out[31] *1043:A1 1.5714e-05
7 *1163:A1 *1043:A1 0.00024465
8 *1163:A1 *1164:B1 6.14273e-05
9 *1163:A1 *81:74 0
10 *1163:A1 *81:80 0
11 *1163:A1 *430:175 1.1792e-05
12 *57:8 *1452:D 8.56819e-05
13 *2:11 data_out[31] 0
*RES
1 *1452:Q *57:8 17.8002 
2 *57:8 data_out[31] 7.02317 
3 *57:8 *1163:A1 21.3947 
*END

*D_NET *58 0.00536521
*CONN
*P data_out[3] O
*I *1023:A1 I *D sky130_fd_sc_hd__o21ai_0
*I *1424:Q O *D sky130_fd_sc_hd__dfxtp_1
*CAP
1 data_out[3] 0.000785163
2 *1023:A1 0.000481899
3 *1424:Q 0.000390648
4 *58:8 0.00165771
5 data_out[3] *1024:B1 0
6 data_out[3] *1059:A2 0.000113657
7 data_out[3] *1431:D 0
8 data_out[3] *901:18 0
9 data_out[3] *901:20 0
10 *1023:A1 *1024:B1 0
11 *1023:A1 *81:30 0.00011818
12 *1023:A1 *901:12 0
13 *1023:A1 *901:18 0
14 *1023:A1 *901:91 0
15 *1023:A1 *901:102 0
16 *58:8 *1424:D 0.000147183
17 data_out[10] data_out[3] 0.00034929
18 data_out[28] *1023:A1 0.00019549
19 data_out[2] data_out[3] 0.000277004
20 *2:11 data_out[3] 0.000848984
*RES
1 *1424:Q *58:8 20.0186 
2 *58:8 data_out[3] 10.2687 
3 *58:8 *1023:A1 25.9947 
*END

*D_NET *59 0.00365432
*CONN
*P data_out[4] O
*I *1028:A1 I *D sky130_fd_sc_hd__o21ai_0
*I *1425:Q O *D sky130_fd_sc_hd__dfxtp_1
*CAP
1 data_out[4] 0.000566779
2 *1028:A1 0.000114271
3 *1425:Q 0.000512828
4 *59:8 0.00119388
5 data_out[4] *1425:CLK 7.30178e-05
6 data_out[4] *1425:D 3.31733e-05
7 data_out[4] *1446:D 9.31773e-05
8 *1028:A1 *1425:D 0.000123582
9 *59:8 *1425:D 1.87611e-05
10 *59:8 *430:321 0.00011818
11 data_out[26] data_out[4] 0.000806673
*RES
1 *1425:Q *59:8 21.1278 
2 *59:8 data_out[4] 9.99554 
3 *59:8 *1028:A1 16.7198 
*END

*D_NET *60 0.00293674
*CONN
*P data_out[5] O
*I *1033:A1 I *D sky130_fd_sc_hd__o21ai_0
*I *1426:Q O *D sky130_fd_sc_hd__dfxtp_1
*CAP
1 data_out[5] 0.000766504
2 *1033:A1 8.76299e-05
3 *1426:Q 0.000375211
4 *60:8 0.00122934
5 *1033:A1 *1426:D 0
6 *1033:A1 *81:171 3.47091e-05
7 *1033:A1 *430:617 1.07248e-05
8 *60:8 *1426:D 0.000432613
9 data_out[11] data_out[5] 0
10 *28:11 data_out[5] 0
*RES
1 *1426:Q *60:8 20.0186 
2 *60:8 *1033:A1 15.9964 
3 *60:8 data_out[5] 6.03264 
*END

*D_NET *61 0.00424194
*CONN
*P data_out[6] O
*I *1038:A1 I *D sky130_fd_sc_hd__o21ai_0
*I *1427:Q O *D sky130_fd_sc_hd__dfxtp_1
*CAP
1 data_out[6] 0.0003411
2 *1038:A1 0.000398799
3 *1427:Q 0.000997923
4 *61:10 0.00173782
5 *1038:A1 *899:47 0
6 *1038:A1 *899:49 0
7 *1038:A1 *899:51 0
8 *61:10 *1427:CLK 0
9 *61:10 *1427:D 5.52427e-05
10 *61:10 *1436:D 0
11 data_out[15] data_out[6] 0.000657531
12 data_out[15] *1038:A1 5.35277e-05
*RES
1 *1427:Q *61:10 29.9564 
2 *61:10 data_out[6] 5.34423 
3 *61:10 *1038:A1 23.2633 
*END

*D_NET *62 0.00435727
*CONN
*P data_out[7] O
*I *1043:A1 I *D sky130_fd_sc_hd__o21ai_0
*I *1428:Q O *D sky130_fd_sc_hd__dfxtp_1
*CAP
1 data_out[7] 0.00028846
2 *1043:A1 0.000129368
3 *1428:Q 6.94396e-05
4 *62:8 0.000487268
5 data_out[7] *1164:B1 1.66626e-05
6 *1043:A1 *1164:B1 0.000333559
7 *1043:A1 *81:80 0
8 *62:8 *1164:B1 5.07314e-05
9 *62:8 *1428:D 1.41291e-05
10 data_out[31] data_out[7] 0.00108591
11 data_out[31] *1043:A1 1.5714e-05
12 *1163:A1 *1043:A1 0.00024465
13 *26:15 data_out[7] 0.00162137
*RES
1 *1428:Q *62:8 15.5817 
2 *62:8 data_out[7] 7.09966 
3 *62:8 *1043:A1 19.7337 
*END

*D_NET *63 0.00373064
*CONN
*P data_out[8] O
*I *1048:A1 I *D sky130_fd_sc_hd__o21ai_0
*I *1429:Q O *D sky130_fd_sc_hd__dfxtp_1
*CAP
1 data_out[8] 0.0003226
2 *1048:A1 0.000285107
3 *1429:Q 0.000644226
4 *63:8 0.00125193
5 data_out[8] data_out[9] 0.000350483
6 *1048:A1 *1049:B1 0
7 *1048:A1 *1053:A1 2.84468e-05
8 *1048:A1 *81:150 0
9 *1048:A1 *430:436 0
10 *1048:A1 *430:458 0
11 *1048:A1 *430:473 0
12 *63:8 *1429:CLK 1.43983e-05
13 *63:8 *1429:D 3.18826e-06
14 *24:17 data_out[8] 0.000830263
*RES
1 *1429:Q *63:8 22.7916 
2 *63:8 *1048:A1 19.3184 
3 *63:8 data_out[8] 5.87966 
*END

*D_NET *64 0.00360354
*CONN
*P data_out[9] O
*I *1053:A1 I *D sky130_fd_sc_hd__o21ai_0
*I *1430:Q O *D sky130_fd_sc_hd__dfxtp_1
*CAP
1 data_out[9] 0.000651952
2 *1053:A1 0.000210198
3 *1430:Q 0.000345527
4 *64:8 0.00120768
5 *1053:A1 *1429:CLK 0
6 *1053:A1 *1429:D 0.000151726
7 *1053:A1 *81:144 5.95652e-05
8 *1053:A1 *81:150 1.25946e-05
9 *1053:A1 *430:473 0
10 *64:8 *1430:D 0.000585366
11 data_out[30] data_out[9] 0
12 data_out[8] data_out[9] 0.000350483
13 *1048:A1 *1053:A1 2.84468e-05
14 *24:17 data_out[9] 0
*RES
1 *1430:Q *64:8 20.0186 
2 *64:8 *1053:A1 19.7337 
3 *64:8 data_out[9] 6.10913 
*END

*D_NET *65 0.00779926
*CONN
*P empty O
*I *1004:SLEEP I *D sky130_fd_sc_hd__lpflow_isobufsrc_8
*I *1677:X O *D sky130_fd_sc_hd__and4_1
*CAP
1 empty 0.00178824
2 *1004:SLEEP 0.000173837
3 *1677:X 0.0007396
4 *65:12 0.00270168
5 empty *935:CLK 8.22405e-05
6 empty *1149:B1 0
7 empty *1154:A2 0
8 empty *72:13 0
9 empty *545:16 3.89902e-05
10 *1004:SLEEP *935:CLK 1.09738e-05
11 *1004:SLEEP *1149:B1 0
12 *1004:SLEEP *81:48 0
13 *1004:SLEEP *898:98 0
14 *65:12 *1677:A 6.46815e-05
15 *65:12 *1677:B 0.00027329
16 *65:12 *1677:D 2.61147e-05
17 *65:12 *1678:B1 2.58757e-05
18 *65:12 *2317:A 0.000113968
19 *65:12 *902:6 0.000724504
20 *65:12 *902:34 0.00016386
21 data_out[26] empty 0
22 data_out[29] empty 0.000789633
23 *54:14 empty 8.17755e-05
*RES
1 *1677:X *65:12 34.6312 
2 *65:12 *1004:SLEEP 17.6574 
3 *65:12 empty 12.3211 
*END

*D_NET *66 0.00651142
*CONN
*P full O
*I *939:A_N I *D sky130_fd_sc_hd__and4b_4
*I *945:B I *D sky130_fd_sc_hd__nor4bb_4
*I *1704:X O *D sky130_fd_sc_hd__and4_1
*CAP
1 full 0.000955198
2 *939:A_N 0.00098828
3 *945:B 0.00150996
4 *1704:X 1.9489e-05
5 *66:8 0.00149636
6 full *1704:A 0.000172631
7 full *1705:A2 1.38521e-05
8 full *77:16 0.000108767
9 *939:A_N *1693:A 6.64453e-05
10 *939:A_N *1706:B1 0.000319954
11 *939:A_N *1718:D 2.22342e-05
12 *939:A_N *83:180 0.00016708
13 *945:B *945:A 0
14 *945:B *1703:B 0
15 *945:B *1705:A2 1.44611e-05
16 *945:B *1705:A3 4.3116e-06
17 *945:B *1711:A1 0.000216103
18 *945:B *77:16 0.000128997
19 *945:B *421:10 0.000220183
20 *945:B *845:10 1.47102e-05
21 *66:8 *1704:A 7.34948e-06
22 *66:8 *844:6 6.50586e-05
*RES
1 *1704:X *66:8 14.4725 
2 *66:8 *945:B 28.24 
3 *66:8 full 20.8733 
4 *945:B *939:A_N 43.9322 
*END

*D_NET *67 0.0160066
*CONN
*P rclk I
*I *2310:A I *D sky130_fd_sc_hd__clkbuf_8
*CAP
1 rclk 0.0076887
2 *2310:A 8.8769e-05
3 *67:18 0.00777747
4 *67:18 *1712:A 0
5 *67:18 *77:16 1.13978e-06
6 *67:18 *81:9 0
7 *67:18 *86:18 0
8 *67:18 *88:15 2.2947e-05
9 *67:18 *419:61 0.000263999
10 *67:18 *485:20 2.37383e-05
11 *67:18 *857:363 0.000139877
*RES
1 rclk *67:18 26.3613 
2 *67:18 *2310:A 15.5817 
*END

*D_NET *68 0.0664952
*CONN
*I *1031:S0 I *D sky130_fd_sc_hd__mux4_2
*I *1120:S0 I *D sky130_fd_sc_hd__mux4_2
*I *1021:S0 I *D sky130_fd_sc_hd__mux4_2
*I *1020:S0 I *D sky130_fd_sc_hd__mux4_2
*I *1010:S0 I *D sky130_fd_sc_hd__mux4_2
*I *1011:S0 I *D sky130_fd_sc_hd__mux4_2
*I *1105:S0 I *D sky130_fd_sc_hd__mux4_2
*I *1106:S0 I *D sky130_fd_sc_hd__mux4_2
*I *1121:S0 I *D sky130_fd_sc_hd__mux4_2
*I *1096:S0 I *D sky130_fd_sc_hd__mux4_2
*I *1030:S0 I *D sky130_fd_sc_hd__mux4_2
*I *1081:S0 I *D sky130_fd_sc_hd__mux4_2
*I *1080:S0 I *D sky130_fd_sc_hd__mux4_2
*I *1156:S0 I *D sky130_fd_sc_hd__mux4_2
*I *1155:S0 I *D sky130_fd_sc_hd__mux4_2
*I *1685:C I *D sky130_fd_sc_hd__and4_1
*I *1667:B I *D sky130_fd_sc_hd__xor2_1
*I *1687:A3 I *D sky130_fd_sc_hd__a41oi_1
*I *1680:A1 I *D sky130_fd_sc_hd__a21oi_1
*I *1674:B I *D sky130_fd_sc_hd__xnor3_1
*I *2287:A I *D sky130_fd_sc_hd__buf_12
*I *1055:S0 I *D sky130_fd_sc_hd__mux4_2
*I *1040:S0 I *D sky130_fd_sc_hd__mux4_2
*I *1041:S0 I *D sky130_fd_sc_hd__mux4_2
*I *1095:S0 I *D sky130_fd_sc_hd__mux4_2
*I *1056:S0 I *D sky130_fd_sc_hd__mux4_2
*I *1679:A1 I *D sky130_fd_sc_hd__o21ai_0
*I *1684:A2 I *D sky130_fd_sc_hd__a31oi_1
*I *1682:A1 I *D sky130_fd_sc_hd__a21oi_1
*I *1681:B I *D sky130_fd_sc_hd__and3_1
*I *1689:Q O *D sky130_fd_sc_hd__dfxtp_4
*CAP
1 *1031:S0 0.000386822
2 *1120:S0 0.000931367
3 *1021:S0 0.000314972
4 *1020:S0 0.000556027
5 *1010:S0 0
6 *1011:S0 2.72922e-05
7 *1105:S0 9.17228e-05
8 *1106:S0 0
9 *1121:S0 0.000329906
10 *1096:S0 0
11 *1030:S0 0
12 *1081:S0 0.000695202
13 *1080:S0 0.0011064
14 *1156:S0 0.00176058
15 *1155:S0 0.000811909
16 *1685:C 0.000215182
17 *1667:B 0.000176126
18 *1687:A3 0
19 *1680:A1 0
20 *1674:B 0.000644413
21 *2287:A 0.000304776
22 *1055:S0 7.6631e-05
23 *1040:S0 0.000894835
24 *1041:S0 0.0020789
25 *1095:S0 0.00126177
26 *1056:S0 0.00121366
27 *1679:A1 0
28 *1684:A2 0.000615301
29 *1682:A1 0
30 *1681:B 0.000289902
31 *1689:Q 0.000808525
32 *68:318 0.000723892
33 *68:308 0.00107047
34 *68:306 0.00097519
35 *68:304 0.00100009
36 *68:302 0.0015876
37 *68:264 0.00100548
38 *68:260 0.00137151
39 *68:239 0.00186371
40 *68:200 0.000519108
41 *68:189 0.000508097
42 *68:158 0.00106241
43 *68:110 0.00167824
44 *68:104 0.00111291
45 *68:81 0.00217651
46 *68:77 0.00105277
47 *68:73 0.00129412
48 *68:71 0.000675936
49 *68:43 0.000340573
50 *68:28 0.000661178
51 *68:20 0.000966716
52 *1011:S0 *1011:A2 1.22366e-05
53 *1020:S0 *1020:A2 0
54 *1020:S0 *1552:DE 4.31485e-06
55 *1020:S0 *69:298 0
56 *1020:S0 *877:21 9.84495e-05
57 *1020:S0 *903:190 5.34415e-05
58 *1021:S0 *1021:A3 0
59 *1021:S0 *1021:S1 0
60 *1021:S0 *877:21 0
61 *1031:S0 *1404:DE 0
62 *1031:S0 *1660:DE 0.000769131
63 *1040:S0 *1040:A3 0.00022301
64 *1041:S0 *1042:A0 1.81467e-05
65 *1041:S0 *1492:D 3.24665e-05
66 *1041:S0 *865:30 6.52296e-05
67 *1055:S0 *1055:A2 0.000119502
68 *1056:S0 *1055:A2 1.99543e-06
69 *1056:S0 *1655:CLK 0.000172531
70 *1056:S0 *1655:D 5.93747e-05
71 *1056:S0 *69:41 0.000109603
72 *1080:S0 *418:97 0.000522469
73 *1080:S0 *865:102 0.000537059
74 *1081:S0 *1080:S1 0.000850667
75 *1095:S0 *2288:A 9.5891e-05
76 *1095:S0 *903:52 0.000862994
77 *1120:S0 *1082:A1 0.00016386
78 *1120:S0 *1188:B 0.000103035
79 *1120:S0 *1284:C 9.73599e-06
80 *1120:S0 *424:297 0.000400743
81 *1120:S0 *525:18 0.000131776
82 *1120:S0 *868:96 0.000393753
83 *1121:S0 *1106:S1 0.000312798
84 *1121:S0 *1121:A3 3.67708e-05
85 *1121:S0 *860:103 0.000741265
86 *1155:S0 *1095:A2 2.33654e-05
87 *1155:S0 *1095:A3 0.000892335
88 *1155:S0 *1155:S1 0
89 *1155:S0 *1471:D 3.76373e-05
90 *1155:S0 *424:67 0
91 *1155:S0 *424:73 0
92 *1155:S0 *873:55 1.26673e-05
93 *1155:S0 *903:67 0.000408937
94 *1156:S0 *1156:A0 7.26606e-05
95 *1156:S0 *1156:A1 0.000127968
96 *1156:S0 *1157:A0 5.66868e-06
97 *1156:S0 *69:55 0
98 *1156:S0 *69:57 0
99 *1156:S0 *858:197 0.000175799
100 *1156:S0 *904:54 0.000125121
101 *1667:B *1685:A 6.50727e-05
102 *1667:B *1688:A1 0.000160617
103 *1667:B *69:403 0.000848867
104 *1667:B *70:157 4.88955e-05
105 *1667:B *78:8 0.000234107
106 *1674:B *952:B 0
107 *1674:B *1674:A 0.000267394
108 *1674:B *1689:D 2.28389e-05
109 *1674:B *69:20 2.47811e-05
110 *1674:B *69:24 0.00017899
111 *1674:B *70:20 0.000217589
112 *1674:B *127:10 0
113 *1681:B *1681:A 0.000103229
114 *1681:B *81:508 0
115 *1681:B *418:16 0
116 *1681:B *902:121 0
117 *1684:A2 *1682:A2 1.92336e-05
118 *1684:A2 *1683:B 0.000262354
119 *1684:A2 *69:334 1.19721e-05
120 *1685:C *910:B 0.000158368
121 *1685:C *1670:B 3.51249e-05
122 *1685:C *70:157 1.09738e-05
123 *1685:C *886:25 0.000313495
124 *2287:A *954:A 7.56233e-05
125 *2287:A *83:44 2.08274e-05
126 *68:20 *1679:A2 3.19928e-05
127 *68:20 *1679:B1 2.58616e-05
128 *68:20 *1680:B1 0.000167939
129 *68:20 *2280:A 1.81618e-05
130 *68:20 *76:22 0.000142435
131 *68:20 *417:51 0.000157432
132 *68:20 *417:57 7.48033e-05
133 *68:20 *421:51 0
134 *68:20 *424:20 5.1493e-06
135 *68:20 *424:33 0.000119049
136 *68:20 *828:33 7.74299e-05
137 *68:28 *1679:B1 7.45167e-05
138 *68:28 *418:16 0
139 *68:28 *902:121 0
140 *68:43 *1681:A 1.43983e-05
141 *68:43 *69:334 2.82583e-05
142 *68:71 *2280:A 6.36477e-05
143 *68:71 *421:51 5.00906e-05
144 *68:71 *424:35 0
145 *68:73 *124:12 0.00020308
146 *68:73 *421:51 2.20056e-05
147 *68:73 *424:35 0
148 *68:77 *954:B 0
149 *68:77 *1258:C 4.60658e-05
150 *68:77 *1271:B 0
151 *68:77 *123:16 0
152 *68:77 *417:84 0.000766475
153 *68:77 *418:34 0
154 *68:77 *421:51 6.24344e-05
155 *68:77 *424:35 0
156 *68:77 *471:18 0
157 *68:77 *903:27 0
158 *68:81 *1055:A2 0.000118351
159 *68:104 *1648:D 0
160 *68:104 *903:27 0.00122532
161 *68:104 *903:186 0.000184557
162 *68:110 *1040:A3 1.43298e-05
163 *68:110 *903:52 4.88333e-05
164 *68:158 *1680:A2 3.15947e-05
165 *68:189 *1683:B 0.000115934
166 *68:189 *1686:C 0.000708044
167 *68:189 *1691:D 0.000155649
168 *68:189 *69:332 4.66492e-05
169 *68:189 *69:334 6.50586e-05
170 *68:189 *69:365 8.43626e-05
171 *68:189 *70:20 8.62625e-06
172 *68:200 *910:B 1.07248e-05
173 *68:200 *1686:C 7.444e-06
174 *68:200 *69:365 8.36586e-06
175 *68:200 *69:376 8.5976e-05
176 *68:200 *69:403 6.56594e-05
177 *68:200 *70:157 1.69932e-05
178 *68:200 *76:64 0.00016167
179 *68:239 *1096:A0 7.50722e-05
180 *68:239 *1096:A1 0.000123346
181 *68:239 *1375:B 0
182 *68:239 *1663:D 0.000119653
183 *68:239 *69:53 0
184 *68:239 *70:44 0
185 *68:239 *503:18 0.00013697
186 *68:239 *858:197 0.000133071
187 *68:260 *1419:CLK 0.000114336
188 *68:260 *418:87 6.73439e-05
189 *68:260 *418:89 0.000737739
190 *68:260 *423:79 1.88422e-05
191 *68:260 *424:99 0.000327623
192 *68:260 *904:54 0.000122844
193 *68:264 *418:89 6.91504e-05
194 *68:264 *418:97 0.00127657
195 *68:264 *424:99 9.2346e-06
196 *68:264 *424:107 0.00022182
197 *68:264 *865:102 0.000196761
198 *68:302 *423:42 2.02035e-05
199 *68:302 *485:20 0
200 *68:302 *903:186 0.00156383
201 *68:304 *2271:A 2.15656e-05
202 *68:304 *423:65 3.6509e-05
203 *68:304 *873:91 0.000283332
204 *68:304 *877:21 0.000512468
205 *68:304 *903:190 0.000402832
206 *68:306 *423:65 0.000316572
207 *68:306 *863:100 0.000186729
208 *68:306 *877:21 0.000232209
209 *68:308 *1473:D 0
210 *68:308 *69:220 0
211 *68:308 *423:65 0.00031708
212 *68:308 *512:20 1.65078e-05
213 *68:308 *863:100 0.00132644
214 *68:308 *893:60 5.64988e-05
215 *68:318 *1106:A0 0
216 *68:318 *1106:S1 3.12828e-05
217 *68:318 *512:20 0
218 *68:318 *860:103 1.8458e-05
219 *68:318 *863:100 0.000205332
220 *68:318 *893:47 3.20069e-06
221 *68:318 *893:60 8.68133e-05
222 *68:318 *904:147 0.000614736
223 *963:A *1120:S0 2.58757e-05
224 *1188:A *1120:S0 0.000360313
225 *1195:A *1156:S0 0.00025591
226 *1227:A *68:260 0.000557815
227 *1266:A *68:260 2.1667e-05
228 *1266:A *68:264 0.000421973
229 *13:13 *1120:S0 0
230 *13:28 *1121:S0 0
231 *13:100 *68:318 0.000121036
232 *16:36 *1120:S0 0.000308814
233 *24:46 *1156:S0 0
234 *24:64 *1156:S0 0
*RES
1 *1689:Q *68:20 37.5388 
2 *68:20 *68:28 15.2927 
3 *68:28 *1681:B 24.1294 
4 *68:28 *68:43 1.8326 
5 *68:43 *1682:A1 9.24915 
6 *68:43 *1684:A2 13.3002 
7 *68:20 *1679:A1 9.24915 
8 *1689:Q *68:71 16.7198 
9 *68:71 *68:73 4.73876 
10 *68:73 *68:77 27.5099 
11 *68:77 *68:81 3.93045 
12 *68:81 *1056:S0 19.4232 
13 *68:81 *68:104 34.9166 
14 *68:104 *68:110 7.33409 
15 *68:110 *1095:S0 20.0353 
16 *68:110 *1041:S0 21.8253 
17 *68:104 *1040:S0 5.63043 
18 *68:77 *1055:S0 2.85741 
19 *68:73 *2287:A 20.0427 
20 *68:71 *68:158 13.012 
21 *68:158 *1674:B 36.7403 
22 *68:158 *1680:A1 9.24915 
23 *1684:A2 *68:189 28.8037 
24 *68:189 *1687:A3 13.7491 
25 *68:189 *68:200 4.64105 
26 *68:200 *1667:B 25.01 
27 *68:200 *1685:C 20.3233 
28 *1095:S0 *1155:S0 35.7471 
29 *1041:S0 *68:239 31.2471 
30 *68:239 *1156:S0 31.2471 
31 *1156:S0 *68:260 38.6091 
32 *68:260 *68:264 24.5732 
33 *68:264 *1080:S0 14.2218 
34 *68:264 *1081:S0 14.0127 
35 *68:260 *1030:S0 4.5 
36 *68:239 *1096:S0 4.5 
37 *1040:S0 *68:302 13.8078 
38 *68:302 *68:304 22.8022 
39 *68:304 *68:306 13.4591 
40 *68:306 *68:308 23.8404 
41 *68:308 *68:318 22.81 
42 *68:318 *1121:S0 18.8628 
43 *68:318 *1106:S0 4.5 
44 *68:308 *1105:S0 6.24821 
45 *68:306 *1011:S0 5.139 
46 *68:304 *1010:S0 4.5 
47 *68:302 *1020:S0 11.6659 
48 *1020:S0 *1021:S0 16.7188 
49 *1080:S0 *1120:S0 42.1292 
50 *1081:S0 *1031:S0 22.4591 
*END

*D_NET *69 0.0940829
*CONN
*I *1146:S1 I *D sky130_fd_sc_hd__mux4_2
*I *1131:S1 I *D sky130_fd_sc_hd__mux4_2
*I *1026:S1 I *D sky130_fd_sc_hd__mux4_2
*I *1135:S1 I *D sky130_fd_sc_hd__mux4_2
*I *1136:S1 I *D sky130_fd_sc_hd__mux4_2
*I *1016:S1 I *D sky130_fd_sc_hd__mux4_2
*I *2285:A I *D sky130_fd_sc_hd__buf_12
*I *1671:B I *D sky130_fd_sc_hd__xnor2_1
*I *1667:A I *D sky130_fd_sc_hd__xor2_1
*I *1685:B I *D sky130_fd_sc_hd__and4_1
*I *1687:A2 I *D sky130_fd_sc_hd__a41oi_1
*I *1684:A1 I *D sky130_fd_sc_hd__a31oi_1
*I *1682:B1 I *D sky130_fd_sc_hd__a21oi_1
*I *1681:A I *D sky130_fd_sc_hd__and3_1
*I *1676:B I *D sky130_fd_sc_hd__xnor3_1
*I *1055:S1 I *D sky130_fd_sc_hd__mux4_2
*I *1020:S1 I *D sky130_fd_sc_hd__mux4_2
*I *1021:S1 I *D sky130_fd_sc_hd__mux4_2
*I *1010:S1 I *D sky130_fd_sc_hd__mux4_2
*I *1011:S1 I *D sky130_fd_sc_hd__mux4_2
*I *1105:S1 I *D sky130_fd_sc_hd__mux4_2
*I *1120:S1 I *D sky130_fd_sc_hd__mux4_2
*I *1121:S1 I *D sky130_fd_sc_hd__mux4_2
*I *1106:S1 I *D sky130_fd_sc_hd__mux4_2
*I *1040:S1 I *D sky130_fd_sc_hd__mux4_2
*I *1056:S1 I *D sky130_fd_sc_hd__mux4_2
*I *1041:S1 I *D sky130_fd_sc_hd__mux4_2
*I *1096:S1 I *D sky130_fd_sc_hd__mux4_2
*I *1155:S1 I *D sky130_fd_sc_hd__mux4_2
*I *1095:S1 I *D sky130_fd_sc_hd__mux4_2
*I *1156:S1 I *D sky130_fd_sc_hd__mux4_2
*I *1030:S1 I *D sky130_fd_sc_hd__mux4_2
*I *1031:S1 I *D sky130_fd_sc_hd__mux4_2
*I *1080:S1 I *D sky130_fd_sc_hd__mux4_2
*I *1081:S1 I *D sky130_fd_sc_hd__mux4_2
*I *1674:A I *D sky130_fd_sc_hd__xnor3_1
*I *1690:Q O *D sky130_fd_sc_hd__dfxtp_4
*CAP
1 *1146:S1 0.00032225
2 *1131:S1 0
3 *1026:S1 0
4 *1135:S1 0.000698514
5 *1136:S1 0
6 *1016:S1 0
7 *2285:A 0
8 *1671:B 0.000175393
9 *1667:A 0
10 *1685:B 0.000417465
11 *1687:A2 3.38856e-05
12 *1684:A1 0
13 *1682:B1 2.06324e-05
14 *1681:A 0.000317798
15 *1676:B 0
16 *1055:S1 0
17 *1020:S1 0
18 *1021:S1 0.000276751
19 *1010:S1 2.14452e-05
20 *1011:S1 0
21 *1105:S1 0
22 *1120:S1 0.00121417
23 *1121:S1 0
24 *1106:S1 0.000740367
25 *1040:S1 0
26 *1056:S1 0
27 *1041:S1 0
28 *1096:S1 0
29 *1155:S1 0.000635708
30 *1095:S1 0.000183585
31 *1156:S1 0
32 *1030:S1 0.000381652
33 *1031:S1 0
34 *1080:S1 0.00116236
35 *1081:S1 0
36 *1674:A 8.06871e-05
37 *1690:Q 8.88952e-05
38 *69:503 0.00167728
39 *69:489 0.001953
40 *69:477 0.00179687
41 *69:461 0.00266271
42 *69:442 0.00246279
43 *69:427 0.00110005
44 *69:414 0.00101182
45 *69:403 0.0011986
46 *69:376 0.000975013
47 *69:365 0.00039395
48 *69:334 0.000429856
49 *69:332 0.000137613
50 *69:298 0.000455472
51 *69:232 0.000961526
52 *69:226 0.00202651
53 *69:220 0.00121335
54 *69:214 0.00103025
55 *69:212 0.00128712
56 *69:206 0.00223718
57 *69:187 0.00215679
58 *69:183 0.00217812
59 *69:138 0.00185548
60 *69:81 0.00171228
61 *69:75 0.0011132
62 *69:65 0.00178368
63 *69:57 0.00177677
64 *69:55 0.00207295
65 *69:53 0.00125097
66 *69:47 0.00232961
67 *69:41 0.00224771
68 *69:24 0.00180046
69 *69:20 0.00197328
70 *69:16 0.000735276
71 *69:10 0.000735924
72 *69:8 0.000464771
73 *1010:S1 *858:157 6.50586e-05
74 *1021:S1 *1020:A1 0
75 *1021:S1 *1021:A2 0
76 *1030:S1 *1202:B 0.000703222
77 *1030:S1 *1490:D 6.08467e-05
78 *1080:S1 *1080:A1 0
79 *1080:S1 *1080:A3 1.03594e-05
80 *1080:S1 *418:97 0
81 *1095:S1 *1095:A1 0.000161453
82 *1095:S1 *2288:A 4.12349e-05
83 *1095:S1 *503:18 0.00015607
84 *1095:S1 *903:52 0.000262228
85 *1106:S1 *1106:A0 1.55025e-05
86 *1106:S1 *1121:A3 0.000117376
87 *1106:S1 *1505:D 0
88 *1106:S1 *856:223 0.00016553
89 *1120:S1 *1120:A1 0
90 *1120:S1 *1121:A0 0.000196329
91 *1120:S1 *1122:S 1.11499e-05
92 *1120:S1 *1569:D 0.000148566
93 *1120:S1 *424:291 0
94 *1120:S1 *524:16 0
95 *1120:S1 *525:18 0
96 *1135:S1 *1136:A0 0
97 *1135:S1 *1137:A0 0.000158727
98 *1135:S1 *1137:S 6.51686e-05
99 *1135:S1 *537:16 5.81507e-05
100 *1135:S1 *861:99 0
101 *1135:S1 *864:67 0
102 *1146:S1 *1146:A0 0
103 *1146:S1 *1146:A3 5.12201e-05
104 *1146:S1 *417:495 7.586e-05
105 *1146:S1 *864:20 0.000323526
106 *1146:S1 *864:34 2.24484e-05
107 *1155:S1 *1095:A0 5.33233e-05
108 *1155:S1 *1183:B 6.15123e-05
109 *1155:S1 *2288:A 3.88415e-05
110 *1155:S1 *865:168 0.000318786
111 *1155:S1 *874:75 0.000297892
112 *1155:S1 *874:81 7.5845e-05
113 *1155:S1 *903:67 0
114 *1671:B *946:B 6.85047e-05
115 *1671:B *1671:A 0.000175573
116 *1671:B *2265:A 0.000179957
117 *1671:B *2284:A 0.000184377
118 *1671:B *77:16 7.86825e-06
119 *1671:B *857:14 1.14979e-05
120 *1681:A *930:B 0
121 *1681:A *1683:C 1.61631e-05
122 *1681:A *81:508 0
123 *1685:B *944:A 0.000251844
124 *1685:B *1685:A 5.04879e-05
125 *1685:B *1688:A1 2.14314e-05
126 *1685:B *427:245 0.000392278
127 *1687:A2 *76:53 2.16355e-05
128 *69:8 *1690:D 3.82228e-05
129 *69:10 *1691:D 4.72872e-05
130 *69:10 *70:12 0.000118485
131 *69:16 *952:B 0.000151427
132 *69:16 *1683:A 0.000140779
133 *69:16 *1691:D 2.47663e-05
134 *69:16 *70:12 2.95757e-05
135 *69:16 *70:20 0.000348581
136 *69:16 *424:20 0.000137993
137 *69:16 *424:33 0
138 *69:20 *952:B 3.25087e-05
139 *69:20 *70:20 1.22892e-05
140 *69:41 *1056:A0 6.27718e-05
141 *69:41 *1056:A1 6.46815e-05
142 *69:41 *1056:A3 6.27782e-05
143 *69:41 *1057:A0 4.38138e-05
144 *69:41 *1655:CLK 0.00031827
145 *69:41 *70:34 0
146 *69:41 *70:40 0.000307501
147 *69:47 *1041:A1 0
148 *69:47 *1041:A2 0
149 *69:47 *1056:A0 0
150 *69:47 *1655:CLK 0
151 *69:47 *419:16 0
152 *69:47 *461:12 0
153 *69:47 *885:68 0
154 *69:47 *885:89 0
155 *69:47 *898:66 0
156 *69:53 *1041:A3 0.000151494
157 *69:53 *1096:A1 0
158 *69:53 *417:138 0
159 *69:53 *898:25 0
160 *69:53 *898:66 0
161 *69:55 *1096:A3 0.000142707
162 *69:57 *1156:A2 0
163 *69:57 *553:14 0
164 *69:65 *1031:A0 0.000258188
165 *69:65 *1156:A3 0.000146035
166 *69:65 *423:94 0
167 *69:65 *423:104 0
168 *69:65 *858:219 0
169 *69:65 *904:54 0
170 *69:75 *1031:A0 2.38092e-05
171 *69:75 *1032:A0 0.000215436
172 *69:75 *1490:D 0.000127779
173 *69:75 *423:104 0
174 *69:75 *894:173 0.000174205
175 *69:75 *894:253 5.1674e-06
176 *69:81 *1031:A1 0
177 *69:81 *1081:A2 0
178 *69:81 *1660:DE 0
179 *69:81 *2298:A 0
180 *69:81 *423:104 0
181 *69:138 *1095:A3 3.5837e-05
182 *69:138 *1215:B 0.000240798
183 *69:138 *1279:B 6.08467e-05
184 *69:138 *418:72 3.82228e-05
185 *69:138 *424:73 3.87967e-05
186 *69:138 *424:83 4.68492e-06
187 *69:138 *865:168 0.000101148
188 *69:138 *903:52 0.000228538
189 *69:183 *1258:C 3.04234e-05
190 *69:183 *1354:B 0.00011768
191 *69:183 *83:57 5.57744e-05
192 *69:183 *83:65 7.8406e-05
193 *69:183 *418:34 0
194 *69:183 *423:30 2.73295e-05
195 *69:183 *865:16 0.000644556
196 *69:183 *875:426 0.000866672
197 *69:183 *903:10 0.000982172
198 *69:187 *1040:A0 2.91621e-05
199 *69:187 *1040:A1 1.30018e-05
200 *69:187 *1040:A2 0
201 *69:187 *1055:A3 0.000152599
202 *69:187 *418:34 0
203 *69:187 *418:44 7.66564e-05
204 *69:187 *423:30 0.00016828
205 *69:187 *423:36 0.000306912
206 *69:187 *423:42 3.44461e-05
207 *69:206 *1040:A0 0.000170379
208 *69:206 *1040:A1 6.46815e-05
209 *69:206 *1552:CLK 3.96696e-05
210 *69:206 *1552:D 4.25297e-05
211 *69:206 *884:260 0.000190367
212 *69:212 *1010:A1 4.29063e-05
213 *69:212 *1020:A2 6.93171e-05
214 *69:212 *1020:A3 8.70127e-05
215 *69:212 *1552:D 9.13781e-05
216 *69:212 *123:43 0
217 *69:212 *423:65 0
218 *69:212 *424:272 0.000374847
219 *69:212 *873:91 0
220 *69:214 *1010:A3 3.77804e-05
221 *69:214 *423:65 0
222 *69:214 *424:272 0.000743286
223 *69:214 *437:16 0
224 *69:220 *1011:A3 0.000578928
225 *69:220 *1473:D 0.00018714
226 *69:220 *423:65 0
227 *69:220 *424:272 0.000863104
228 *69:220 *424:278 0.000308233
229 *69:220 *763:20 9.22013e-06
230 *69:226 *1473:D 2.35336e-05
231 *69:226 *1569:D 0.000222813
232 *69:226 *424:278 0.00112523
233 *69:226 *763:20 6.80864e-05
234 *69:226 *856:223 6.23875e-05
235 *69:226 *893:34 0
236 *69:226 *893:47 0
237 *69:232 *1121:A0 0.000118166
238 *69:232 *524:16 1.03403e-05
239 *69:232 *856:223 0.000429429
240 *69:298 *1020:A2 0.000191318
241 *69:298 *1020:A3 0.000102979
242 *69:332 *1683:B 1.41689e-05
243 *69:332 *1683:C 0.000260388
244 *69:332 *70:14 0.000160617
245 *69:334 *1682:A2 0.000253916
246 *69:334 *1683:B 1.41853e-05
247 *69:334 *1683:C 0.000510762
248 *69:365 *1691:D 0.000139434
249 *69:365 *70:12 0.000180836
250 *69:365 *70:144 0.000371611
251 *69:376 *70:144 3.20407e-05
252 *69:376 *70:157 6.23012e-05
253 *69:403 *1688:A1 0.000111722
254 *69:403 *70:157 7.04127e-05
255 *69:403 *78:8 4.91225e-06
256 *69:414 *907:A 6.50727e-05
257 *69:414 *920:CLK 2.23124e-05
258 *69:414 *920:D 0.000119713
259 *69:414 *946:B 2.55751e-05
260 *69:414 *2284:A 0.000375095
261 *69:414 *78:8 0.000492294
262 *69:414 *126:10 0
263 *69:442 *1016:A2 7.78924e-05
264 *69:442 *1327:C 0.000164529
265 *69:442 *427:265 8.03393e-06
266 *69:442 *880:12 0
267 *69:461 *1016:A2 3.73375e-05
268 *69:461 *1391:D 0.000188436
269 *69:461 *1583:DE 0.000183748
270 *69:461 *82:22 1.80143e-06
271 *69:461 *125:44 0.00210691
272 *69:461 *417:495 9.34618e-06
273 *69:461 *861:23 0
274 *69:461 *861:44 0.000247037
275 *69:461 *864:20 0
276 *69:461 *864:34 4.51176e-05
277 *69:477 *1131:A2 6.50727e-05
278 *69:477 *1146:A1 4.23912e-05
279 *69:477 *1254:B 0.000107919
280 *69:477 *888:161 0.00035377
281 *69:489 *1027:A0 2.60879e-06
282 *69:489 *1131:A2 1.77537e-06
283 *69:489 *125:71 0.00148133
284 *69:489 *125:79 0.00176192
285 *69:489 *126:54 0.000166062
286 *69:489 *861:65 0.000340143
287 *69:503 *1027:A0 7.89235e-05
288 *69:503 *1136:A2 4.31703e-05
289 *69:503 *1319:C 2.23105e-05
290 *69:503 *1607:D 4.73256e-05
291 *69:503 *126:83 0.000614172
292 *69:503 *427:404 1.4106e-05
293 *69:503 *870:56 0.000441354
294 *1020:S0 *69:298 0
295 *1021:S0 *1021:S1 0
296 *1056:S0 *69:41 0.000109603
297 *1081:S0 *1080:S1 0.000850667
298 *1121:S0 *1106:S1 0.000312798
299 *1155:S0 *1155:S1 0
300 *1156:S0 *69:55 0
301 *1156:S0 *69:57 0
302 *1175:A *69:41 0
303 *1266:A *1030:S1 0.00011081
304 *1266:A *69:65 1.43698e-05
305 *1322:A *69:183 3.74005e-05
306 *1667:B *69:403 0.000848867
307 *1674:B *1674:A 0.000267394
308 *1674:B *69:20 2.47811e-05
309 *1674:B *69:24 0.00017899
310 *1681:B *1681:A 0.000103229
311 *1684:A2 *69:334 1.19721e-05
312 *2:67 *69:41 0
313 *10:56 *69:53 9.87353e-05
314 *10:56 *69:55 5.2504e-06
315 *10:56 *69:57 9.35753e-06
316 *10:56 *69:138 0.000379505
317 *10:67 *69:138 7.27446e-05
318 *13:100 *1106:S1 0.000309709
319 *19:58 *69:503 6.27718e-05
320 *19:64 *69:503 0.000539177
321 *19:83 *69:489 1.91246e-05
322 *19:83 *69:503 0.000213193
323 *24:46 *69:57 5.47232e-06
324 *24:46 *69:65 5.07505e-05
325 *24:64 *69:57 0.000146167
326 *26:15 *69:187 1.91246e-05
327 *28:76 *69:65 4.90834e-05
328 *28:91 *69:65 1.77588e-05
329 *68:43 *1681:A 1.43983e-05
330 *68:43 *69:334 2.82583e-05
331 *68:189 *69:332 4.66492e-05
332 *68:189 *69:334 6.50586e-05
333 *68:189 *69:365 8.43626e-05
334 *68:200 *69:365 8.36586e-06
335 *68:200 *69:376 8.5976e-05
336 *68:200 *69:403 6.56594e-05
337 *68:239 *69:53 0
338 *68:308 *69:220 0
339 *68:318 *1106:S1 3.12828e-05
*RES
1 *1690:Q *69:8 15.0271 
2 *69:8 *69:10 2.24725 
3 *69:10 *69:16 21.0069 
4 *69:16 *69:20 7.1625 
5 *69:20 *69:24 10.5857 
6 *69:24 *1674:A 12.191 
7 *69:24 *69:41 38.309 
8 *69:41 *69:47 35.3319 
9 *69:47 *69:53 32.9404 
10 *69:53 *69:55 3.07775 
11 *69:55 *69:57 23.8404 
12 *69:57 *69:65 26.8807 
13 *69:65 *69:75 24.7394 
14 *69:75 *69:81 22.0438 
15 *69:81 *1081:S1 9.24915 
16 *69:81 *1080:S1 46.7711 
17 *69:75 *1031:S1 9.24915 
18 *69:65 *1030:S1 21.2575 
19 *69:57 *1156:S1 13.7491 
20 *69:55 *69:138 37.8232 
21 *69:138 *1095:S1 20.7358 
22 *69:138 *1155:S1 35.8308 
23 *69:53 *1096:S1 13.7491 
24 *69:47 *1041:S1 9.24915 
25 *69:41 *1056:S1 9.24915 
26 *69:20 *69:183 37.3884 
27 *69:183 *69:187 31.6624 
28 *69:187 *1040:S1 9.24915 
29 *69:187 *69:206 26.4283 
30 *69:206 *69:212 23.9136 
31 *69:212 *69:214 13.4591 
32 *69:214 *69:220 24.0602 
33 *69:220 *69:226 26.4357 
34 *69:226 *69:232 8.12615 
35 *69:232 *1106:S1 39.6289 
36 *69:232 *1121:S1 9.24915 
37 *69:226 *1120:S1 48.7335 
38 *69:220 *1105:S1 13.7491 
39 *69:214 *1011:S1 13.7491 
40 *69:212 *1010:S1 14.4725 
41 *69:206 *69:298 10.6561 
42 *69:298 *1021:S1 24.6489 
43 *69:298 *1020:S1 9.24915 
44 *69:183 *1055:S1 13.7491 
45 *69:16 *1676:B 13.7491 
46 *69:10 *69:332 7.44181 
47 *69:332 *69:334 5.71483 
48 *69:334 *1681:A 26.2084 
49 *69:334 *1682:B1 9.82786 
50 *69:332 *1684:A1 9.24915 
51 *69:8 *69:365 11.4561 
52 *69:365 *1687:A2 14.4725 
53 *69:365 *69:376 1.832 
54 *69:376 *1685:B 32.0935 
55 *69:376 *69:403 18.9138 
56 *69:403 *1667:A 9.24915 
57 *69:403 *69:414 27.0127 
58 *69:414 *1671:B 20.9794 
59 *69:414 *69:427 7.44181 
60 *69:427 *2285:A 9.24915 
61 *69:427 *69:442 30.1627 
62 *69:442 *1016:S1 9.24915 
63 *69:442 *69:461 20.8517 
64 *69:461 *69:477 25.2132 
65 *69:477 *69:489 16.2516 
66 *69:489 *69:503 30.4502 
67 *69:503 *1136:S1 9.24915 
68 *69:503 *1135:S1 38.5971 
69 *69:489 *1026:S1 13.7491 
70 *69:477 *1131:S1 9.24915 
71 *69:461 *1146:S1 24.3337 
*END

*D_NET *70 0.0340635
*CONN
*I *2284:A I *D sky130_fd_sc_hd__buf_12
*I *1671:A I *D sky130_fd_sc_hd__xnor2_1
*I *1669:B I *D sky130_fd_sc_hd__and2_0
*I *1685:A I *D sky130_fd_sc_hd__and4_1
*I *1687:A1 I *D sky130_fd_sc_hd__a41oi_1
*I *1668:B I *D sky130_fd_sc_hd__nor2_1
*I *1684:B1 I *D sky130_fd_sc_hd__a31oi_1
*I *1676:A I *D sky130_fd_sc_hd__xnor3_1
*I *1675:B I *D sky130_fd_sc_hd__xnor3_1
*I *1057:S I *D sky130_fd_sc_hd__mux2i_1
*I *1042:S I *D sky130_fd_sc_hd__mux2i_1
*I *1157:S I *D sky130_fd_sc_hd__mux2i_1
*I *1032:S I *D sky130_fd_sc_hd__mux2i_1
*I *1082:S I *D sky130_fd_sc_hd__mux2i_1
*I *1097:S I *D sky130_fd_sc_hd__mux2i_1
*I *1691:Q O *D sky130_fd_sc_hd__dfxtp_4
*CAP
1 *2284:A 0.000175316
2 *1671:A 8.65199e-05
3 *1669:B 0
4 *1685:A 0.000255171
5 *1687:A1 0
6 *1668:B 2.7831e-05
7 *1684:B1 0
8 *1676:A 8.47303e-05
9 *1675:B 0.000176757
10 *1057:S 0
11 *1042:S 3.24281e-05
12 *1157:S 0.000138696
13 *1032:S 0.000171689
14 *1082:S 0.000777819
15 *1097:S 0.000110922
16 *1691:Q 0.00113132
17 *70:184 0.00103289
18 *70:157 0.000406216
19 *70:144 0.000373365
20 *70:63 0.00173753
21 *70:57 0.00151131
22 *70:44 0.00165481
23 *70:40 0.00217609
24 *70:34 0.00188571
25 *70:28 0.00117367
26 *70:20 0.0010414
27 *70:14 0.000702753
28 *70:12 0.000214586
29 *70:8 0.000727695
30 *1032:S *1458:CLK 6.3657e-05
31 *1032:S *1458:D 0.000236556
32 *1032:S *1458:DE 3.43037e-05
33 *1032:S *451:14 0.000186629
34 *1042:S *1042:A1 9.46208e-05
35 *1042:S *885:89 0.000216458
36 *1082:S *1082:A1 0.000366486
37 *1082:S *894:16 0
38 *1082:S *903:79 0.000351015
39 *1082:S *903:85 0.00133515
40 *1082:S *904:62 0.00139552
41 *1157:S *904:54 0.000136945
42 *1668:B *1683:B 9.28436e-05
43 *1668:B *1683:C 3.60592e-05
44 *1671:A *857:14 0.000180669
45 *1675:B *127:10 0
46 *1675:B *828:18 9.35753e-06
47 *1685:A *944:A 8.92568e-06
48 *1685:A *1688:A1 0.000169355
49 *1685:A *78:8 0.000191023
50 *2284:A *857:14 0.000569314
51 *70:8 *421:45 2.71541e-05
52 *70:12 *76:12 4.38671e-05
53 *70:12 *424:20 0.000209899
54 *70:14 *1683:B 0.000211492
55 *70:14 *1683:C 1.65872e-05
56 *70:20 *1680:B1 0
57 *70:20 *1683:A 2.67514e-05
58 *70:20 *1686:B 0.000118003
59 *70:20 *1686:C 1.37925e-05
60 *70:20 *1689:D 4.58089e-05
61 *70:20 *1691:D 0.000117423
62 *70:20 *127:10 0
63 *70:20 *828:33 0
64 *70:28 *1676:C 0.000161956
65 *70:34 *1057:A1 4.95892e-05
66 *70:34 *127:10 0
67 *70:34 *127:20 0
68 *70:40 *1056:A0 0
69 *70:40 *1057:A1 0.000208606
70 *70:40 *1059:A2 0
71 *70:40 *1207:B 0
72 *70:40 *1492:CLK 8.03393e-06
73 *70:40 *1652:D 5.66399e-06
74 *70:40 *1655:CLK 0
75 *70:40 *1655:DE 0
76 *70:40 *885:68 0
77 *70:40 *885:89 0
78 *70:44 *1042:A0 0
79 *70:44 *1375:B 0
80 *70:44 *1492:CLK 0.000340492
81 *70:44 *1652:D 0.000136855
82 *70:44 *858:183 0
83 *70:44 *865:57 1.06064e-05
84 *70:44 *884:27 0.000265361
85 *70:57 *418:87 0.000878916
86 *70:57 *865:57 0.000565993
87 *70:57 *884:27 3.20264e-05
88 *70:57 *884:29 0.000198334
89 *70:57 *884:31 0.000193169
90 *70:57 *884:33 0.000350545
91 *70:57 *884:48 0.000725975
92 *70:63 *1387:D 0.000106178
93 *70:63 *1419:CLK 0
94 *70:63 *1515:CLK 0.000182729
95 *70:63 *418:87 6.20492e-05
96 *70:63 *424:99 0.000596024
97 *70:63 *858:213 0.000323071
98 *70:63 *884:48 3.31733e-05
99 *70:63 *884:50 0.000182246
100 *70:63 *894:253 0
101 *70:63 *903:79 8.36586e-06
102 *70:63 *904:58 0.000526395
103 *70:63 *904:62 1.9511e-05
104 *70:144 *76:12 6.21031e-05
105 *70:144 *76:53 6.11394e-05
106 *70:157 *1670:B 5.05252e-05
107 *70:157 *76:53 8.61152e-06
108 *70:157 *78:8 2.65667e-05
109 *70:157 *821:12 0
110 *70:184 *947:A 0.000161897
111 *70:184 *2265:A 6.08467e-05
112 *70:184 *83:44 4.65531e-05
113 *70:184 *421:45 9.50523e-05
114 *70:184 *872:16 3.31745e-05
115 *1175:A *70:34 1.6989e-05
116 *1183:A *70:57 1.23804e-05
117 *1204:A *70:40 8.89188e-05
118 *1667:B *1685:A 6.50727e-05
119 *1667:B *70:157 4.88955e-05
120 *1671:B *1671:A 0.000175573
121 *1671:B *2284:A 0.000184377
122 *1674:B *70:20 0.000217589
123 *1685:B *1685:A 5.04879e-05
124 *1685:C *70:157 1.09738e-05
125 *30:68 *70:44 6.03986e-06
126 *68:189 *70:20 8.62625e-06
127 *68:200 *70:157 1.69932e-05
128 *68:239 *70:44 0
129 *69:10 *70:12 0.000118485
130 *69:16 *70:12 2.95757e-05
131 *69:16 *70:20 0.000348581
132 *69:20 *70:20 1.22892e-05
133 *69:41 *70:34 0
134 *69:41 *70:40 0.000307501
135 *69:332 *70:14 0.000160617
136 *69:365 *70:12 0.000180836
137 *69:365 *70:144 0.000371611
138 *69:376 *70:144 3.20407e-05
139 *69:376 *70:157 6.23012e-05
140 *69:403 *70:157 7.04127e-05
141 *69:414 *2284:A 0.000375095
*RES
1 *1691:Q *70:8 18.9094 
2 *70:8 *70:12 10.4845 
3 *70:12 *70:14 2.38721 
4 *70:14 *70:20 29.1031 
5 *70:20 *70:28 11.5169 
6 *70:28 *70:34 21.5892 
7 *70:34 *70:40 33.6343 
8 *70:40 *70:44 30.4166 
9 *70:44 *1097:S 11.6364 
10 *70:44 *70:57 32.5251 
11 *70:57 *70:63 28.0662 
12 *70:63 *1082:S 48.2846 
13 *70:63 *1032:S 20.7661 
14 *70:57 *1157:S 17.2456 
15 *70:40 *1042:S 16.1364 
16 *70:34 *1057:S 9.24915 
17 *70:28 *1675:B 17.6574 
18 *70:20 *1676:A 11.0817 
19 *70:14 *1684:B1 9.24915 
20 *70:12 *1668:B 10.4548 
21 *70:8 *70:144 8.54931 
22 *70:144 *1687:A1 13.7491 
23 *70:144 *70:157 9.13165 
24 *70:157 *1685:A 26.6265 
25 *70:157 *1669:B 9.24915 
26 *1691:Q *70:184 33.3291 
27 *70:184 *1671:A 17.2421 
28 *70:184 *2284:A 23.8862 
*END

*D_NET *72 0.00619108
*CONN
*P rd_en I
*I *1665:A I *D sky130_fd_sc_hd__clkinv_1
*I *1004:A I *D sky130_fd_sc_hd__lpflow_isobufsrc_8
*CAP
1 rd_en 0.00104407
2 *1665:A 0.000772767
3 *1004:A 2.06324e-05
4 *72:13 0.00183746
5 *1665:A *419:16 0.000101148
6 *1665:A *430:8 0.000324166
7 *1665:A *898:72 0.000199513
8 *72:13 *1024:B1 1.99312e-05
9 *72:13 *1423:D 0.000682884
10 *72:13 *430:8 1.41976e-05
11 data_out[28] *72:13 0.00117032
12 empty *72:13 0
13 *55:10 *72:13 3.99086e-06
*RES
1 rd_en *72:13 21.3333 
2 *72:13 *1004:A 9.82786 
3 *72:13 *1665:A 38.5519 
*END

*D_NET *73 0.0010285
*CONN
*I *907:A I *D sky130_fd_sc_hd__and2_0
*I *1667:X O *D sky130_fd_sc_hd__xor2_1
*CAP
1 *907:A 0.000481716
2 *1667:X 0.000481716
3 *907:A *101:14 0
4 *907:A *886:19 0
5 *907:A *886:110 0
6 *907:A *886:123 0
7 *69:414 *907:A 6.50727e-05
*RES
1 *1667:X *907:A 38.774 
*END

*D_NET *74 0.00237144
*CONN
*I *908:B I *D sky130_fd_sc_hd__and2_0
*I *1672:Y O *D sky130_fd_sc_hd__clkinv_1
*CAP
1 *908:B 0.000497772
2 *1672:Y 0.000497772
3 *908:B *911:B 2.57847e-05
4 *908:B *916:D 0.000664115
5 *908:B *1672:A 8.8047e-05
6 *908:B *2268:A 0.000235732
7 *908:B *864:10 0.000362216
*RES
1 *1672:Y *908:B 36.4385 
*END

*D_NET *75 0.00207556
*CONN
*I *909:B I *D sky130_fd_sc_hd__and2_0
*I *1670:Y O *D sky130_fd_sc_hd__nor2_1
*CAP
1 *909:B 0.000843834
2 *1670:Y 0.000843834
3 *909:B *917:CLK 0.000169057
4 *909:B *917:D 0.000218831
*RES
1 *1670:Y *909:B 43.4071 
*END

*D_NET *76 0.00893911
*CONN
*I *910:B I *D sky130_fd_sc_hd__and2_0
*I *1669:A I *D sky130_fd_sc_hd__and2_0
*I *1687:B1 I *D sky130_fd_sc_hd__a41oi_1
*I *1668:A I *D sky130_fd_sc_hd__nor2_1
*I *1673:A I *D sky130_fd_sc_hd__xnor2_1
*I *1675:A I *D sky130_fd_sc_hd__xnor3_1
*I *1692:Q O *D sky130_fd_sc_hd__dfxtp_1
*CAP
1 *910:B 0.000312837
2 *1669:A 0
3 *1687:B1 2.89089e-05
4 *1668:A 1.26312e-05
5 *1673:A 0
6 *1675:A 0.000234938
7 *1692:Q 4.51842e-05
8 *76:64 0.000398186
9 *76:53 0.000342195
10 *76:22 0.000979381
11 *76:12 0.00102343
12 *76:8 0.00053948
13 *910:B *1670:B 0
14 *910:B *1686:C 5.65074e-05
15 *910:B *79:12 0.000635608
16 *910:B *127:157 1.30666e-05
17 *910:B *886:25 0.000986681
18 *910:B *886:33 0.000162739
19 *1668:A *1683:B 6.50727e-05
20 *1668:A *1683:C 2.65831e-05
21 *1675:A *1689:CLK 0.000189759
22 *1675:A *828:18 8.47992e-05
23 *1687:B1 *1687:A4 6.27782e-05
24 *1687:B1 *427:245 0.000110458
25 *76:8 *423:12 6.08467e-05
26 *76:12 *421:51 0
27 *76:12 *424:20 0.000209899
28 *76:12 *821:12 0.000435649
29 *76:22 *952:B 6.12686e-06
30 *76:22 *417:51 0.00014083
31 *76:22 *421:51 0
32 *76:22 *424:20 0.000331395
33 *76:22 *424:33 6.27782e-05
34 *76:22 *824:10 3.02534e-05
35 *76:22 *902:108 6.08467e-05
36 *76:53 *427:245 0.000299994
37 *76:53 *821:12 0.000254456
38 *76:64 *1686:C 6.42595e-05
39 *1685:C *910:B 0.000158368
40 *1687:A2 *76:53 2.16355e-05
41 *68:20 *76:22 0.000142435
42 *68:200 *910:B 1.07248e-05
43 *68:200 *76:64 0.00016167
44 *70:12 *76:12 4.38671e-05
45 *70:144 *76:12 6.21031e-05
46 *70:144 *76:53 6.11394e-05
47 *70:157 *76:53 8.61152e-06
*RES
1 *1692:Q *76:8 14.4725 
2 *76:8 *76:12 10.0393 
3 *76:12 *76:22 24.1511 
4 *76:22 *1675:A 25.0642 
5 *76:22 *1673:A 9.24915 
6 *76:12 *1668:A 14.4725 
7 *76:8 *76:53 12.7352 
8 *76:53 *1687:B1 10.5271 
9 *76:53 *76:64 7.57775 
10 *76:64 *1669:A 13.7491 
11 *76:64 *910:B 31.1367 
*END

*D_NET *77 0.0102694
*CONN
*I *1703:C I *D sky130_fd_sc_hd__xnor3_1
*I *919:Q O *D sky130_fd_sc_hd__dfxtp_1
*CAP
1 *1703:C 0
2 *919:Q 0.00371
3 *77:16 0.00371
4 *77:16 *944:B 0
5 *77:16 *945:A 0
6 *77:16 *946:B 2.02035e-05
7 *77:16 *2290:A 0.00224175
8 *77:16 *421:10 9.13167e-05
9 *77:16 *423:12 0.000133887
10 *77:16 *851:14 0
11 *77:16 *878:13 0.000115513
12 full *77:16 0.000108767
13 *945:B *77:16 0.000128997
14 *1671:B *77:16 7.86825e-06
15 *67:18 *77:16 1.13978e-06
*RES
1 *919:Q *77:16 45.5529 
2 *77:16 *1703:C 13.7491 
*END

*D_NET *78 0.00722175
*CONN
*I *1702:C I *D sky130_fd_sc_hd__xnor3_1
*I *920:Q O *D sky130_fd_sc_hd__dfxtp_1
*CAP
1 *1702:C 0.000237719
2 *920:Q 0.00242542
3 *78:8 0.00266314
4 *1702:C *1702:B 2.43387e-05
5 *1702:C *86:118 0.000118166
6 *1702:C *886:43 0.000488784
7 *78:8 *920:D 0.000116903
8 *78:8 *922:CLK 4.87439e-05
9 *78:8 *922:D 6.86306e-05
10 *78:8 *1688:A1 6.12686e-06
11 *78:8 *80:14 3.24043e-05
12 *78:8 *886:43 4.24726e-05
13 *1667:B *78:8 0.000234107
14 *1685:A *78:8 0.000191023
15 *69:403 *78:8 4.91225e-06
16 *69:414 *78:8 0.000492294
17 *70:157 *78:8 2.65667e-05
*RES
1 *920:Q *78:8 49.0842 
2 *78:8 *1702:C 18.4845 
*END

*D_NET *79 0.00517023
*CONN
*I *1701:C I *D sky130_fd_sc_hd__xor3_1
*I *921:Q O *D sky130_fd_sc_hd__dfxtp_1
*CAP
1 *1701:C 0
2 *921:Q 0.00203405
3 *79:12 0.00203405
4 *79:12 *1701:A 0.000115632
5 *79:12 *82:22 0.00010238
6 *79:12 *886:23 0.000198176
7 *79:12 *886:25 5.03285e-05
8 *910:B *79:12 0.000635608
*RES
1 *921:Q *79:12 47.7579 
2 *79:12 *1701:C 9.24915 
*END

*D_NET *80 0.00345416
*CONN
*I *1700:B I *D sky130_fd_sc_hd__xor2_1
*I *922:Q O *D sky130_fd_sc_hd__dfxtp_1
*CAP
1 *1700:B 0
2 *922:Q 0.00128828
3 *80:14 0.00128828
4 *80:14 *910:A 4.47003e-05
5 *80:14 *918:CLK 0
6 *80:14 *918:D 0.000127179
7 *80:14 *922:CLK 2.75805e-05
8 *80:14 *922:D 1.36733e-05
9 *80:14 *1688:A1 0.000213725
10 *80:14 *1702:A 0
11 *80:14 *843:10 0.000175485
12 *80:14 *886:33 0.000177772
13 *80:14 *886:43 6.50727e-05
14 *78:8 *80:14 3.24043e-05
*RES
1 *922:Q *80:14 45.0888 
2 *80:14 *1700:B 9.24915 
*END

*D_NET *81 0.0486119
*CONN
*P rrst_n I
*I *925:A I *D sky130_fd_sc_hd__and2_0
*I *926:A I *D sky130_fd_sc_hd__and2_0
*I *930:A I *D sky130_fd_sc_hd__and2_0
*I *1666:A I *D sky130_fd_sc_hd__clkinv_1
*I *1679:B1 I *D sky130_fd_sc_hd__o21ai_0
*I *928:A I *D sky130_fd_sc_hd__and2_0
*I *924:A I *D sky130_fd_sc_hd__and2_0
*I *929:A I *D sky130_fd_sc_hd__and2_0
*I *927:A I *D sky130_fd_sc_hd__and2_0
*I *1138:B1 I *D sky130_fd_sc_hd__o21ai_0
*I *923:B I *D sky130_fd_sc_hd__and2_0
*I *1028:B1 I *D sky130_fd_sc_hd__o21ai_0
*I *1133:B1 I *D sky130_fd_sc_hd__o21ai_0
*I *1018:B1 I *D sky130_fd_sc_hd__o21ai_0
*I *1163:B1 I *D sky130_fd_sc_hd__o21ai_0
*I *1043:B1 I *D sky130_fd_sc_hd__o21ai_0
*I *1058:B1 I *D sky130_fd_sc_hd__o21ai_0
*I *1103:B1 I *D sky130_fd_sc_hd__o21ai_0
*I *1128:B1 I *D sky130_fd_sc_hd__o21ai_0
*I *1118:B1 I *D sky130_fd_sc_hd__o21ai_0
*I *1073:B1 I *D sky130_fd_sc_hd__o21ai_0
*I *1098:B1 I *D sky130_fd_sc_hd__o21ai_0
*I *1113:B1 I *D sky130_fd_sc_hd__o21ai_0
*I *1013:B1 I *D sky130_fd_sc_hd__o21ai_0
*I *1158:B1 I *D sky130_fd_sc_hd__o21ai_0
*I *1053:B1 I *D sky130_fd_sc_hd__o21ai_0
*I *1048:B1 I *D sky130_fd_sc_hd__o21ai_0
*I *1108:B1 I *D sky130_fd_sc_hd__o21ai_0
*I *1063:B1 I *D sky130_fd_sc_hd__o21ai_0
*I *1033:B1 I *D sky130_fd_sc_hd__o21ai_0
*I *1143:B1 I *D sky130_fd_sc_hd__o21ai_0
*I *1093:B1 I *D sky130_fd_sc_hd__o21ai_0
*I *1123:B1 I *D sky130_fd_sc_hd__o21ai_0
*I *1083:B1 I *D sky130_fd_sc_hd__o21ai_0
*I *1008:B1 I *D sky130_fd_sc_hd__o21ai_0
*I *1038:B1 I *D sky130_fd_sc_hd__o21ai_0
*I *1078:B1 I *D sky130_fd_sc_hd__o21ai_0
*I *1088:B1 I *D sky130_fd_sc_hd__o21ai_0
*I *1068:B1 I *D sky130_fd_sc_hd__o21ai_0
*I *1148:B1 I *D sky130_fd_sc_hd__o21ai_0
*I *1023:B1 I *D sky130_fd_sc_hd__o21ai_0
*I *1153:B1 I *D sky130_fd_sc_hd__o21ai_0
*CAP
1 rrst_n 0.000898412
2 *925:A 0.000506534
3 *926:A 0.000659408
4 *930:A 0
5 *1666:A 0
6 *1679:B1 0.000180073
7 *928:A 2.19319e-05
8 *924:A 0
9 *929:A 0
10 *927:A 0
11 *1138:B1 0.000216355
12 *923:B 0
13 *1028:B1 0
14 *1133:B1 0
15 *1018:B1 3.59766e-05
16 *1163:B1 0
17 *1043:B1 0.000164352
18 *1058:B1 0
19 *1103:B1 0.000134013
20 *1128:B1 0
21 *1118:B1 2.61173e-05
22 *1073:B1 4.28211e-05
23 *1098:B1 7.46724e-05
24 *1113:B1 2.85849e-05
25 *1013:B1 3.37551e-05
26 *1158:B1 0.000632503
27 *1053:B1 1.59132e-05
28 *1048:B1 0
29 *1108:B1 2.64699e-05
30 *1063:B1 0
31 *1033:B1 4.4393e-05
32 *1143:B1 0
33 *1093:B1 0
34 *1123:B1 0.000119508
35 *1083:B1 0.000470314
36 *1008:B1 0
37 *1038:B1 0.000215474
38 *1078:B1 4.02466e-05
39 *1088:B1 7.74644e-05
40 *1068:B1 0
41 *1148:B1 0
42 *1023:B1 0
43 *1153:B1 0
44 *81:508 0.000938821
45 *81:484 0.000375164
46 *81:473 0.000217023
47 *81:471 0.000989555
48 *81:452 0.000937769
49 *81:445 0.000263825
50 *81:431 0.000484192
51 *81:425 0.000784103
52 *81:410 0.000679015
53 *81:366 0.000164352
54 *81:204 0.000492492
55 *81:181 0.000370729
56 *81:179 0.000312066
57 *81:177 0.000477793
58 *81:175 0.000498285
59 *81:171 0.00044877
60 *81:165 0.000573583
61 *81:163 0.000526696
62 *81:152 0.000329296
63 *81:150 0.000188222
64 *81:144 0.000487251
65 *81:140 0.00117103
66 *81:129 0.000521493
67 *81:125 0.000694487
68 *81:123 0.000744016
69 *81:110 0.00043597
70 *81:104 0.00047312
71 *81:100 0.000713428
72 *81:94 0.000859214
73 *81:86 0.000564618
74 *81:80 0.000976294
75 *81:74 0.00098373
76 *81:66 0.00112526
77 *81:48 0.00128788
78 *81:37 0.000531322
79 *81:30 0.000173889
80 *81:23 0.000174438
81 *81:19 0.000734902
82 *81:13 0.00072803
83 *81:11 0.000454179
84 *81:9 0.00156161
85 *926:A *940:A 0.000172232
86 *926:A *948:C 0
87 *926:A *955:A 4.85806e-05
88 *926:A *85:82 0.000424746
89 *926:A *86:124 0.000362216
90 *926:A *86:133 9.72686e-05
91 *926:A *86:135 0.000119367
92 *926:A *92:49 3.20973e-05
93 *926:A *92:62 2.07365e-05
94 *926:A *421:45 0
95 *926:A *427:8 6.27782e-05
96 *928:A *936:D 2.58616e-05
97 *1013:B1 *2316:A 2.16355e-05
98 *1033:B1 *430:611 2.65831e-05
99 *1038:B1 *1038:A2 7.73228e-05
100 *1038:B1 *430:677 7.99477e-05
101 *1043:B1 *1058:A2 0.000122223
102 *1043:B1 *430:145 6.50727e-05
103 *1043:B1 *430:147 6.08467e-05
104 *1053:B1 *1049:B1 2.65831e-05
105 *1053:B1 *1429:D 2.65831e-05
106 *1073:B1 *430:61 3.13894e-05
107 *1073:B1 *430:65 0
108 *1078:B1 *1048:A2 6.49003e-05
109 *1078:B1 *1078:A2 2.65667e-05
110 *1078:B1 *490:18 0.000173563
111 *1083:B1 *1009:A2 1.37189e-05
112 *1083:B1 *1009:B1 7.88576e-05
113 *1083:B1 *1094:A2 7.08723e-06
114 *1083:B1 *1124:B1 8.62321e-06
115 *1083:B1 *1421:D 1.07248e-05
116 *1083:B1 *430:728 1.00846e-05
117 *1083:B1 *494:14 0.0007868
118 *1088:B1 *1089:B1 6.49003e-05
119 *1088:B1 *1451:CLK 6.08467e-05
120 *1098:B1 *1439:D 4.20184e-06
121 *1103:B1 *1104:B1 6.92705e-05
122 *1103:B1 *430:32 2.85274e-05
123 *1108:B1 *1109:B1 2.65667e-05
124 *1113:B1 *1114:B1 2.16355e-05
125 *1113:B1 *900:10 1.03403e-05
126 *1118:B1 *1119:B1 5.0715e-05
127 *1118:B1 *1434:CLK 6.50586e-05
128 *1158:B1 *1089:B1 9.18809e-05
129 *1158:B1 *1158:A2 0.000122378
130 *1158:B1 *1159:B1 2.65667e-05
131 *1158:B1 *1451:D 2.44829e-05
132 *1679:B1 *1679:A2 6.08467e-05
133 *1679:B1 *902:121 8.34345e-05
134 *81:11 *1029:B1 2.24484e-05
135 *81:13 *1029:A1 0
136 *81:13 *1029:B1 0.00012568
137 *81:13 *1425:D 5.2504e-06
138 *81:13 *1446:D 9.22013e-06
139 *81:19 *1029:A1 0
140 *81:19 *1134:B1 0.000261545
141 *81:19 *1446:D 2.23472e-05
142 *81:19 *430:321 0
143 *81:19 *901:102 1.98263e-05
144 *81:19 *901:117 0.000164028
145 *81:23 *1134:B1 1.36691e-05
146 *81:23 *901:102 0.000162483
147 *81:30 *1023:A2 6.50586e-05
148 *81:30 *1153:A2 0.000379505
149 *81:30 *430:229 5.08751e-05
150 *81:37 *1148:A2 6.50586e-05
151 *81:37 *430:229 0.000629776
152 *81:48 *1019:A2 1.12605e-05
153 *81:48 *1019:B1 9.21609e-05
154 *81:48 *1149:B1 2.71397e-05
155 *81:48 *430:10 7.64963e-05
156 *81:48 *430:12 2.16488e-05
157 *81:48 *430:214 2.32311e-05
158 *81:66 *1024:A1 6.27782e-05
159 *81:66 *1024:B1 0.000227832
160 *81:66 *430:12 3.44412e-06
161 *81:66 *430:18 3.20593e-05
162 *81:66 *430:175 2.1203e-06
163 *81:66 *445:18 1.37566e-05
164 *81:74 *1059:A1 6.47426e-05
165 *81:74 *1059:B1 2.42889e-05
166 *81:74 *430:175 6.92705e-05
167 *81:74 *901:20 0
168 *81:80 *1104:B1 0
169 *81:80 *901:20 0
170 *81:80 *901:22 0
171 *81:80 *901:24 0
172 *81:80 *901:28 0
173 *81:86 *430:38 4.90829e-05
174 *81:86 *901:28 0
175 *81:94 *1434:CLK 0.000151009
176 *81:94 *1445:CLK 2.01503e-05
177 *81:94 *430:40 4.82966e-05
178 *81:94 *430:46 0.00013978
179 *81:94 *430:52 0
180 *81:94 *901:28 7.47249e-05
181 *81:100 *1443:CLK 0.000104733
182 *81:100 *430:52 0.000436825
183 *81:100 *430:61 1.92172e-05
184 *81:104 *1439:D 0
185 *81:104 *521:22 0
186 *81:110 *1068:A2 0.000222149
187 *81:110 *1433:D 3.31882e-05
188 *81:110 *430:371 3.0918e-05
189 *81:110 *898:25 4.47626e-05
190 *81:123 *1068:A2 1.41853e-05
191 *81:123 *898:25 0
192 *81:123 *900:12 7.30564e-05
193 *81:123 *900:94 0.000179271
194 *81:125 *900:12 0.000162458
195 *81:125 *900:14 0.00018825
196 *81:125 *900:16 0.000202695
197 *81:125 *900:18 0.000169093
198 *81:125 *900:20 4.70104e-05
199 *81:129 *1451:D 0
200 *81:129 *900:20 0.000174175
201 *81:129 *900:22 0.00019391
202 *81:129 *900:24 2.69685e-05
203 *81:140 *1089:B1 2.62217e-05
204 *81:140 *1451:CLK 1.41291e-05
205 *81:140 *1451:D 1.5767e-05
206 *81:144 *1429:CLK 0
207 *81:144 *1429:D 0.000144531
208 *81:144 *1451:D 2.99929e-05
209 *81:144 *898:43 2.08481e-05
210 *81:144 *900:24 0
211 *81:150 *1049:B1 0.000115965
212 *81:150 *430:436 0
213 *81:150 *490:18 0.000106215
214 *81:150 *898:43 4.78441e-05
215 *81:152 *1048:A2 5.07314e-05
216 *81:152 *1049:B1 4.30017e-06
217 *81:152 *490:18 0.000210197
218 *81:163 *430:436 0.000107282
219 *81:163 *899:27 0
220 *81:163 *899:35 0
221 *81:165 *1432:D 0
222 *81:165 *430:427 5.32652e-05
223 *81:165 *430:436 3.67528e-06
224 *81:165 *899:35 0
225 *81:165 *899:41 0.000210445
226 *81:171 *1432:D 0
227 *81:171 *430:611 2.16355e-05
228 *81:171 *430:617 0
229 *81:171 *899:41 0.000182869
230 *81:171 *899:43 0.000253365
231 *81:175 *1448:D 0
232 *81:175 *430:617 0.000141016
233 *81:177 *1094:A1 0
234 *81:177 *1438:D 0
235 *81:177 *1448:D 0
236 *81:177 *430:617 8.62625e-06
237 *81:177 *430:667 3.31733e-05
238 *81:177 *899:43 0
239 *81:177 *899:45 0
240 *81:177 *899:47 0
241 *81:179 *430:667 0.000130777
242 *81:179 *899:47 0
243 *81:181 *430:667 6.79599e-05
244 *81:181 *430:671 0.000127179
245 *81:181 *430:677 7.77309e-06
246 *81:181 *899:47 0
247 *81:204 *430:677 1.51325e-05
248 *81:204 *430:683 5.22654e-06
249 *81:410 *923:A 0.000117376
250 *81:410 *1029:A2 0.000428753
251 *81:410 *1029:B1 0.000277502
252 *81:410 *1425:D 0.000123176
253 *81:425 *923:A 4.81452e-05
254 *81:425 *931:CLK 4.99151e-05
255 *81:425 *931:D 0.000147668
256 *81:425 *933:D 7.87523e-05
257 *81:425 *934:CLK 0.000158931
258 *81:425 *1029:A2 0.000308675
259 *81:425 *1139:B1 4.99006e-05
260 *81:425 *902:64 0.000166542
261 *81:425 *902:77 0.000158406
262 *81:431 *927:B 0.000124157
263 *81:431 *931:CLK 0
264 *81:431 *937:D 0
265 *81:431 *1139:B1 0
266 *81:445 *902:64 5.07314e-05
267 *81:452 *929:B 0.000220665
268 *81:452 *902:64 0.000229914
269 *81:471 *928:B 0.000114659
270 *81:471 *932:CLK 7.25373e-06
271 *81:471 *932:D 1.03594e-05
272 *81:471 *938:D 8.0209e-05
273 *81:471 *419:16 6.58106e-05
274 *81:471 *902:58 1.58588e-05
275 *81:471 *902:64 7.48633e-05
276 *81:471 *902:97 0.000293088
277 *81:471 *902:108 0.000309709
278 *81:484 *936:D 1.56049e-05
279 *81:484 *417:51 0.00028249
280 *81:484 *418:16 0.000563843
281 *81:508 *928:B 8.36586e-06
282 *81:508 *930:B 0.000142192
283 *81:508 *938:D 4.26754e-05
284 *81:508 *940:A 0.000464856
285 *81:508 *417:51 5.44003e-05
286 data_out[28] *81:30 4.09471e-05
287 data_out[28] *81:37 0.000234268
288 *1004:SLEEP *81:48 0
289 *1008:A1 *1038:B1 0.000115934
290 *1008:A1 *1083:B1 6.08467e-05
291 *1008:A1 *81:204 2.95757e-05
292 *1023:A1 *81:30 0.00011818
293 *1033:A1 *81:171 3.47091e-05
294 *1043:A1 *81:80 0
295 *1048:A1 *81:150 0
296 *1053:A1 *81:144 5.95652e-05
297 *1053:A1 *81:150 1.25946e-05
298 *1068:A1 *81:123 0.000118166
299 *1068:A1 *81:125 0
300 *1073:A1 *81:94 0
301 *1073:A1 *81:100 0
302 *1093:A1 *81:177 6.12569e-05
303 *1098:A1 *81:104 0.000208586
304 *1103:A1 *81:80 0
305 *1103:A1 *81:86 1.44467e-05
306 *1123:A1 *1123:B1 0.000107496
307 *1123:A1 *81:181 1.16596e-05
308 *1123:A1 *81:204 3.88655e-06
309 *1128:A1 *81:86 2.14842e-06
310 *1128:A1 *81:94 0
311 *1133:A1 *81:19 6.2359e-05
312 *1143:A1 *81:177 3.90229e-05
313 *1158:A1 *1158:B1 0.000122497
314 *1163:A1 *81:74 0
315 *1163:A1 *81:80 0
316 *1681:A *81:508 0
317 *1681:B *81:508 0
318 *36:10 *81:125 0
319 *37:10 *81:94 0
320 *41:10 *81:177 9.34618e-06
321 *42:10 *81:104 1.10793e-05
322 *52:10 *81:177 2.6637e-05
323 *67:18 *81:9 0
324 *68:20 *1679:B1 2.58616e-05
325 *68:28 *1679:B1 7.45167e-05
*RES
1 rrst_n *81:9 8.22524 
2 *81:9 *81:11 3.90826 
3 *81:11 *81:13 3.07775 
4 *81:13 *81:19 18.6619 
5 *81:19 *81:23 7.57775 
6 *81:23 *1153:B1 9.24915 
7 *81:23 *81:30 4.60562 
8 *81:30 *1023:B1 9.24915 
9 *81:30 *81:37 7.37864 
10 *81:37 *1148:B1 9.24915 
11 *81:37 *81:48 16.3303 
12 *81:48 *81:66 30.0295 
13 *81:66 *81:74 11.7922 
14 *81:74 *81:80 19.3764 
15 *81:80 *81:86 13.3235 
16 *81:86 *81:94 16.0841 
17 *81:94 *81:100 16.8905 
18 *81:100 *81:104 11.1074 
19 *81:104 *81:110 9.75733 
20 *81:110 *1068:B1 9.24915 
21 *81:110 *81:123 12.8986 
22 *81:123 *81:125 13.4591 
23 *81:125 *81:129 11.315 
24 *81:129 *1088:B1 11.6364 
25 *81:129 *81:140 3.93045 
26 *81:140 *81:144 13.3913 
27 *81:144 *81:150 9.68626 
28 *81:150 *81:152 2.38721 
29 *81:152 *1078:B1 11.6364 
30 *81:152 *81:163 11.315 
31 *81:163 *81:165 6.81502 
32 *81:165 *81:171 14.6721 
33 *81:171 *81:175 7.1625 
34 *81:175 *81:177 10.5523 
35 *81:177 *81:179 2.24725 
36 *81:179 *81:181 4.11588 
37 *81:181 *1038:B1 20.2378 
38 *81:181 *81:204 5.29386 
39 *81:204 *1008:B1 9.24915 
40 *81:204 *1083:B1 29.4505 
41 *81:179 *1123:B1 16.7392 
42 *81:177 *1093:B1 13.7491 
43 *81:175 *1143:B1 13.7491 
44 *81:171 *1033:B1 10.5513 
45 *81:165 *1063:B1 13.7491 
46 *81:163 *1108:B1 14.4725 
47 *81:150 *1048:B1 9.24915 
48 *81:144 *1053:B1 14.4725 
49 *81:140 *1158:B1 21.1128 
50 *81:125 *1013:B1 14.4725 
51 *81:123 *1113:B1 14.4725 
52 *81:104 *1098:B1 15.4224 
53 *81:100 *1073:B1 10.5513 
54 *81:94 *1118:B1 15.0271 
55 *81:86 *1128:B1 9.24915 
56 *81:80 *1103:B1 12.7697 
57 *81:74 *81:366 4.5 
58 *81:366 *1058:B1 9.24915 
59 *81:366 *1043:B1 13.8548 
60 *81:66 *1163:B1 9.24915 
61 *81:48 *1018:B1 14.4725 
62 *81:19 *1133:B1 13.7491 
63 *81:13 *1028:B1 13.7491 
64 *81:11 *81:410 13.5424 
65 *81:410 *923:B 9.24915 
66 *81:410 *81:425 26.1355 
67 *81:425 *81:431 15.815 
68 *81:431 *1138:B1 14.4094 
69 *81:431 *927:A 9.24915 
70 *81:425 *81:445 1.278 
71 *81:445 *929:A 9.24915 
72 *81:445 *81:452 7.93324 
73 *81:452 *924:A 9.24915 
74 *81:452 *81:471 29.6973 
75 *81:471 *81:473 4.5 
76 *81:473 *928:A 9.97254 
77 *81:473 *81:484 9.06656 
78 *81:484 *1679:B1 23.3693 
79 *81:484 *1666:A 9.24915 
80 *81:471 *81:508 10.9675 
81 *81:508 *930:A 13.7491 
82 *81:508 *926:A 33.2317 
83 *81:9 *925:A 25.01 
*END

*D_NET *82 0.0262102
*CONN
*P wclk I
*I *2299:A I *D sky130_fd_sc_hd__clkbuf_8
*CAP
1 wclk 0.0106676
2 *2299:A 0
3 *82:22 0.0106676
4 *82:22 *1712:A 0
5 *82:22 *2290:A 0.00146999
6 *82:22 *86:18 0
7 *82:22 *88:15 0
8 *82:22 *125:44 7.4181e-06
9 *82:22 *856:122 0
10 *82:22 *856:294 0
11 *82:22 *857:258 2.00576e-06
12 *82:22 *864:20 7.34131e-05
13 *82:22 *874:261 0
14 *82:22 *880:41 4.67605e-06
15 *82:22 *895:47 0.00065467
16 *82:22 *897:58 0.00037535
17 *11:17 *82:22 0.00218333
18 *69:461 *82:22 1.80143e-06
19 *79:12 *82:22 0.00010238
*RES
1 wclk *82:22 35.1095 
2 *82:22 *2299:A 13.7491 
*END

*D_NET *83 0.032175
*CONN
*P wrst_n I
*I *908:A I *D sky130_fd_sc_hd__and2_0
*I *911:A I *D sky130_fd_sc_hd__and2_0
*I *909:A I *D sky130_fd_sc_hd__and2_0
*I *913:A I *D sky130_fd_sc_hd__and2_0
*I *944:A I *D sky130_fd_sc_hd__nand2_1
*I *914:A I *D sky130_fd_sc_hd__and2_0
*I *945:D_N I *D sky130_fd_sc_hd__nor4bb_4
*I *939:C I *D sky130_fd_sc_hd__and4b_4
*I *1706:B1 I *D sky130_fd_sc_hd__o21ai_0
*I *1694:A I *D sky130_fd_sc_hd__clkinv_1
*I *910:A I *D sky130_fd_sc_hd__and2_0
*I *912:A I *D sky130_fd_sc_hd__and2_0
*I *907:B I *D sky130_fd_sc_hd__and2_0
*I *959:A I *D sky130_fd_sc_hd__nand2_4
*I *947:A I *D sky130_fd_sc_hd__nand2_1
*I *952:A I *D sky130_fd_sc_hd__nand2_1
*I *949:B I *D sky130_fd_sc_hd__nand2b_4
*I *941:B I *D sky130_fd_sc_hd__nand2b_4
*I *954:A I *D sky130_fd_sc_hd__nand2_4
*I *957:A I *D sky130_fd_sc_hd__nand2_4
*CAP
1 wrst_n 0.0011084
2 *908:A 0
3 *911:A 0
4 *909:A 0
5 *913:A 0.000300297
6 *944:A 0.00044946
7 *914:A 0
8 *945:D_N 0
9 *939:C 0
10 *1706:B1 0.000177514
11 *1694:A 0.000214926
12 *910:A 0.000385895
13 *912:A 0
14 *907:B 0.000184306
15 *959:A 4.16803e-05
16 *947:A 0.000925846
17 *952:A 0.000182402
18 *949:B 7.69574e-05
19 *941:B 0.000132531
20 *954:A 0.000126798
21 *957:A 1.2064e-05
22 *83:214 0.000904545
23 *83:212 0.000251942
24 *83:180 0.000318401
25 *83:170 0.00105979
26 *83:157 0.00232574
27 *83:142 0.00189365
28 *83:140 0.000378198
29 *83:138 0.000827453
30 *83:134 0.000788563
31 *83:132 0.000120614
32 *83:116 0.000184306
33 *83:65 0.000541928
34 *83:57 0.00072096
35 *83:44 0.00157525
36 *83:34 0.00242428
37 *83:30 0.000524939
38 *83:17 0.000435973
39 *83:15 0.000284818
40 *83:13 0.00119646
41 *907:B *916:CLK 9.2841e-05
42 *910:A *918:D 0
43 *941:B *1055:A1 0.00011439
44 *941:B *2262:A 0
45 *941:B *423:24 1.07248e-05
46 *941:B *423:28 1.3807e-05
47 *944:A *922:D 0
48 *944:A *1685:D 0.000304429
49 *944:A *127:6 0.000112361
50 *944:A *127:10 2.86829e-05
51 *944:A *127:157 5.97558e-05
52 *944:A *828:60 8.36586e-06
53 *947:A *943:B 0.000105605
54 *947:A *947:B 1.1246e-05
55 *947:A *872:16 0.00049362
56 *947:A *875:20 0.000302605
57 *947:A *878:30 8.61737e-06
58 *947:A *881:8 9.83112e-05
59 *949:B *421:67 0.000143982
60 *949:B *879:22 7.23852e-05
61 *952:A *1258:C 1.88152e-05
62 *952:A *123:122 0.00075271
63 *957:A *125:8 6.08467e-05
64 *957:A *428:16 6.50586e-05
65 *1694:A *840:10 2.85139e-05
66 *1706:B1 *1706:A1 0.000417348
67 *1706:B1 *1707:B1 6.50586e-05
68 *1706:B1 *417:14 4.89898e-06
69 *83:13 *911:B 4.55145e-06
70 *83:13 *2268:A 0.000104966
71 *83:15 *911:B 3.82252e-05
72 *83:15 *101:14 3.40414e-05
73 *83:17 *911:B 2.57302e-05
74 *83:17 *920:D 0.000142251
75 *83:17 *101:14 0.000192802
76 *83:30 *920:CLK 5.0878e-05
77 *83:30 *920:D 0.000139435
78 *83:30 *101:14 6.12083e-05
79 *83:30 *428:16 9.85794e-05
80 *83:34 *920:CLK 6.73741e-05
81 *83:34 *428:16 0.000162225
82 *83:34 *886:156 9.3491e-05
83 *83:44 *1194:C 0.00022436
84 *83:44 *122:29 0.000452469
85 *83:44 *423:24 9.62257e-05
86 *83:44 *879:16 0
87 *83:44 *886:156 7.51886e-05
88 *83:44 *886:164 6.18909e-05
89 *83:57 *1354:B 0.000121221
90 *83:57 *1514:DE 3.07232e-05
91 *83:57 *362:14 0.000243837
92 *83:57 *903:10 2.77428e-05
93 *83:65 *1514:DE 1.38872e-05
94 *83:65 *121:12 9.00257e-05
95 *83:65 *421:67 0.000167111
96 *83:65 *865:16 0.000172722
97 *83:65 *879:22 4.81015e-05
98 *83:134 *911:B 0.000360307
99 *83:134 *2268:A 4.61271e-05
100 *83:134 *101:14 7.19887e-05
101 *83:138 *914:B 0.000160047
102 *83:138 *1670:A 0.000657848
103 *83:138 *1670:B 6.27332e-05
104 *83:138 *2268:A 0.000158814
105 *83:140 *914:B 0.00016195
106 *83:140 *922:D 0.000198357
107 *83:142 *922:D 0.000211546
108 *83:170 *1713:A 0
109 *83:170 *1714:A3 0
110 *83:170 *1719:D 0
111 *83:170 *84:106 0
112 *83:170 *92:20 0
113 *83:170 *840:12 0
114 *83:170 *847:22 0
115 *83:180 *939:B 0.000171161
116 *83:180 *1693:A 9.01202e-05
117 *83:180 *88:26 0.000178272
118 *83:180 *417:14 1.65872e-05
119 *83:212 *914:B 4.14089e-05
120 *83:214 *914:B 4.46057e-05
121 *83:214 *127:157 0
122 *939:A_N *1706:B1 0.000319954
123 *939:A_N *83:180 0.00016708
124 *1258:A *952:A 0.000256717
125 *1354:A *952:A 6.50727e-05
126 *1685:A *944:A 8.92568e-06
127 *1685:B *944:A 0.000251844
128 *2287:A *954:A 7.56233e-05
129 *2287:A *83:44 2.08274e-05
130 *22:17 *83:13 7.18246e-05
131 *22:17 *83:44 1.5714e-05
132 *22:23 *83:44 0.000189255
133 *22:54 *952:A 0.000160617
134 *22:70 *83:65 3.92275e-05
135 *69:183 *83:57 5.57744e-05
136 *69:183 *83:65 7.8406e-05
137 *70:184 *947:A 0.000161897
138 *70:184 *83:44 4.65531e-05
139 *80:14 *910:A 4.47003e-05
*RES
1 wrst_n *83:13 7.52797 
2 *83:13 *83:15 2.6625 
3 *83:15 *83:17 7.64553 
4 *83:17 *957:A 14.4725 
5 *83:17 *83:30 7.54782 
6 *83:30 *83:34 12.1455 
7 *83:34 *83:44 42.0488 
8 *83:44 *954:A 12.2151 
9 *83:44 *83:57 11.7303 
10 *83:57 *83:65 15.5295 
11 *83:65 *941:B 21.3269 
12 *83:65 *949:B 12.7456 
13 *83:57 *952:A 22.237 
14 *83:34 *947:A 37.1583 
15 *83:30 *959:A 14.4819 
16 *83:15 *83:116 4.5 
17 *83:116 *907:B 13.8789 
18 *83:116 *912:A 9.24915 
19 *83:13 *83:132 4.5 
20 *83:132 *83:134 5.16022 
21 *83:134 *83:138 18.4948 
22 *83:138 *83:140 2.94181 
23 *83:140 *83:142 7.93324 
24 *83:142 *910:A 27.5557 
25 *83:142 *83:157 28.333 
26 *83:157 *1694:A 14.4094 
27 *83:157 *83:170 29.1031 
28 *83:170 *83:180 7.20985 
29 *83:180 *1706:B1 17.8093 
30 *83:180 *939:C 9.24915 
31 *83:170 *945:D_N 9.24915 
32 *83:140 *914:A 9.24915 
33 *83:138 *83:212 7.1625 
34 *83:212 *83:214 4.32351 
35 *83:214 *944:A 26.7691 
36 *83:214 *913:A 20.0186 
37 *83:212 *909:A 13.7491 
38 *83:134 *911:A 9.24915 
39 *83:132 *908:A 9.24915 
*END

*D_NET *84 0.012491
*CONN
*I *1711:A2 I *D sky130_fd_sc_hd__a31oi_1
*I *1703:B I *D sky130_fd_sc_hd__xnor3_1
*I *945:A I *D sky130_fd_sc_hd__nor4bb_4
*I *1714:A3 I *D sky130_fd_sc_hd__a41oi_1
*I *1709:A1 I *D sky130_fd_sc_hd__a21oi_1
*I *1707:A1 I *D sky130_fd_sc_hd__a21oi_1
*I *1708:B I *D sky130_fd_sc_hd__and3_1
*I *1712:C I *D sky130_fd_sc_hd__and4_1
*I *1695:B I *D sky130_fd_sc_hd__xor2_1
*I *939:D I *D sky130_fd_sc_hd__and4b_4
*I *1706:A1 I *D sky130_fd_sc_hd__o21ai_0
*I *1716:Q O *D sky130_fd_sc_hd__dfxtp_1
*CAP
1 *1711:A2 2.40051e-05
2 *1703:B 0.000775464
3 *945:A 0.000272819
4 *1714:A3 7.782e-05
5 *1709:A1 0
6 *1707:A1 9.81107e-05
7 *1708:B 0.000232082
8 *1712:C 0
9 *1695:B 0.000326792
10 *939:D 0
11 *1706:A1 0.000220641
12 *1716:Q 0.00069942
13 *84:121 0.00104828
14 *84:119 0.000239013
15 *84:106 0.000891162
16 *84:77 0.000384071
17 *84:18 0.000269836
18 *84:14 0.000490473
19 *84:12 0.000162939
20 *84:10 0.000458947
21 *84:8 0.000565459
22 *945:A *1705:B1 5.76123e-05
23 *945:A *1711:A1 5.44492e-05
24 *945:A *851:14 6.1613e-05
25 *1695:B *1695:A 0.000497857
26 *1695:B *1718:D 0
27 *1703:B *1704:A 8.5294e-06
28 *1703:B *1704:D 0.000218014
29 *1703:B *1705:A2 2.39535e-05
30 *1703:B *1705:A3 0.000170162
31 *1703:B *1705:B1 5.96736e-05
32 *1703:B *845:10 7.50722e-05
33 *1703:B *846:10 0.00015337
34 *1706:A1 *1707:B1 2.41483e-05
35 *1706:A1 *417:14 9.5145e-05
36 *1707:A1 *1707:A2 9.74724e-05
37 *1707:A1 *1716:D 9.96342e-05
38 *1708:B *1708:A 7.99087e-05
39 *1708:B *847:28 0.000307037
40 *1708:B *849:14 3.14978e-05
41 *1711:A2 *1711:A3 5.08751e-05
42 *1711:A2 *86:107 3.29619e-05
43 *1711:A2 *845:10 6.92705e-05
44 *1714:A3 *1715:A1 0.000216073
45 *1714:A3 *1719:D 8.62625e-06
46 *1714:A3 *847:22 0.000175219
47 *84:8 *1715:A2 0.000171288
48 *84:10 *1713:A 0
49 *84:10 *85:25 7.23666e-05
50 *84:10 *886:49 0.000148144
51 *84:12 *1713:A 0
52 *84:12 *85:25 1.21729e-05
53 *84:14 *1695:A 0.000112163
54 *84:14 *1718:D 0
55 *84:14 *85:25 2.1203e-06
56 *84:77 *1710:B 2.9007e-05
57 *84:77 *1710:C 0.000307023
58 *84:77 *1713:A 0
59 *84:77 *1718:CLK 0.000197569
60 *84:77 *1718:D 0.000164843
61 *84:77 *840:12 0
62 *84:77 *886:49 4.33979e-05
63 *84:106 *1715:A1 9.75356e-05
64 *84:106 *1715:A2 7.97098e-06
65 *84:106 *1715:B1 1.67579e-05
66 *84:106 *1715:C1 0.000155123
67 *84:106 *1719:D 0.000109859
68 *84:106 *86:10 0
69 *84:119 *1711:A3 0.000160617
70 *84:119 *847:22 0.000360159
71 *945:B *945:A 0
72 *945:B *1703:B 0
73 *1706:B1 *1706:A1 0.000417348
74 *77:16 *945:A 0
75 *83:170 *1714:A3 0
76 *83:170 *84:106 0
*RES
1 *1716:Q *84:8 15.5817 
2 *84:8 *84:10 5.56926 
3 *84:10 *84:12 1.00149 
4 *84:12 *84:14 2.6625 
5 *84:14 *84:18 5.2328 
6 *84:18 *1706:A1 17.7611 
7 *84:18 *939:D 9.24915 
8 *84:14 *1695:B 22.812 
9 *84:12 *1712:C 13.7491 
10 *84:10 *1708:B 20.6214 
11 *84:8 *84:77 14.0542 
12 *84:77 *1707:A1 20.8045 
13 *84:77 *1709:A1 9.24915 
14 *1716:Q *84:106 25.036 
15 *84:106 *1714:A3 17.6574 
16 *84:106 *84:119 10.2148 
17 *84:119 *84:121 4.5 
18 *84:121 *945:A 20.9794 
19 *84:121 *1703:B 34.062 
20 *84:119 *1711:A2 10.5271 
*END

*D_NET *85 0.0177882
*CONN
*I *1712:B I *D sky130_fd_sc_hd__and4_1
*I *1711:A1 I *D sky130_fd_sc_hd__a31oi_1
*I *955:A I *D sky130_fd_sc_hd__lpflow_isobufsrc_8
*I *1703:A I *D sky130_fd_sc_hd__xnor3_1
*I *1702:B I *D sky130_fd_sc_hd__xnor3_1
*I *948:B I *D sky130_fd_sc_hd__and3_1
*I *950:SLEEP I *D sky130_fd_sc_hd__lpflow_isobufsrc_8
*I *940:B I *D sky130_fd_sc_hd__and3_1
*I *1699:B I *D sky130_fd_sc_hd__xor2_1
*I *942:B I *D sky130_fd_sc_hd__nor2_4
*I *1714:A2 I *D sky130_fd_sc_hd__a41oi_1
*I *1695:A I *D sky130_fd_sc_hd__xor2_1
*I *1708:A I *D sky130_fd_sc_hd__and3_1
*I *1709:B1 I *D sky130_fd_sc_hd__a21oi_1
*I *1717:Q O *D sky130_fd_sc_hd__dfxtp_1
*CAP
1 *1712:B 0
2 *1711:A1 0.000110031
3 *955:A 9.777e-06
4 *1703:A 0.000364063
5 *1702:B 0.000427398
6 *948:B 0.00058271
7 *950:SLEEP 0
8 *940:B 0.000152031
9 *1699:B 0.000295403
10 *942:B 0
11 *1714:A2 0
12 *1695:A 0.000318125
13 *1708:A 0.000136732
14 *1709:B1 0.000403736
15 *1717:Q 0.000160742
16 *85:149 0.000888372
17 *85:105 0.000515411
18 *85:103 0.000145437
19 *85:101 0.000748011
20 *85:92 0.000562037
21 *85:84 0.000571107
22 *85:82 0.000463454
23 *85:70 0.000795237
24 *85:63 0.00066021
25 *85:38 0.000845665
26 *85:34 0.000113763
27 *85:25 0.000277001
28 *85:6 0.000689843
29 *940:B *930:B 0.000262354
30 *940:B *940:A 1.03403e-05
31 *940:B *417:20 3.82894e-05
32 *948:B *940:A 0
33 *948:B *421:25 0.000705064
34 *948:B *427:10 6.21422e-05
35 *948:B *879:12 1.1718e-05
36 *955:A *92:62 6.27782e-05
37 *1695:A *1713:A 1.59781e-05
38 *1695:A *1713:C 0.00011011
39 *1699:B *936:D 6.55265e-05
40 *1699:B *938:D 0.000111681
41 *1699:B *1699:A 7.01935e-06
42 *1699:B *427:10 0.000111681
43 *1702:B *1702:A 1.87469e-05
44 *1702:B *86:124 0
45 *1702:B *886:43 0.000656479
46 *1703:A *1700:A 0.00020579
47 *1703:A *92:62 0.000247246
48 *1708:A *1706:A2 0.000130942
49 *1708:A *847:28 0.000213739
50 *1708:A *847:34 0.000209372
51 *1709:B1 *1707:B1 0.000150258
52 *1709:B1 *1716:D 0.000244564
53 *1709:B1 *1717:D 0.000211464
54 *1709:B1 *849:14 3.60268e-05
55 *85:6 *886:49 3.6455e-05
56 *85:25 *1712:A 6.01588e-05
57 *85:25 *1718:D 0.000104825
58 *85:25 *886:49 8.52652e-05
59 *85:34 *847:28 6.50727e-05
60 *85:38 *847:28 3.58044e-05
61 *85:63 *92:16 3.16065e-06
62 *85:63 *847:24 0.000660368
63 *85:63 *847:28 5.04829e-06
64 *85:70 *1693:A 0.000164843
65 *85:70 *1714:A1 5.07314e-05
66 *85:70 *92:16 2.11196e-05
67 *85:70 *92:49 8.67835e-05
68 *85:82 *934:D 8.03393e-06
69 *85:82 *92:49 5.4782e-05
70 *85:82 *92:62 0.000259225
71 *85:92 *934:D 0
72 *85:92 *2283:A 0
73 *85:92 *419:8 1.43983e-05
74 *85:103 *938:D 5.88662e-05
75 *85:103 *940:A 0
76 *85:103 *427:10 7.55529e-05
77 *85:105 *938:D 7.93324e-05
78 *85:105 *427:10 7.90257e-05
79 *85:149 *92:62 9.89147e-05
80 *926:A *955:A 4.85806e-05
81 *926:A *85:82 0.000424746
82 *945:A *1711:A1 5.44492e-05
83 *945:B *1711:A1 0.000216103
84 *1695:B *1695:A 0.000497857
85 *1702:C *1702:B 2.43387e-05
86 *1708:B *1708:A 7.99087e-05
87 *84:10 *85:25 7.23666e-05
88 *84:12 *85:25 1.21729e-05
89 *84:14 *1695:A 0.000112163
90 *84:14 *85:25 2.1203e-06
*RES
1 *1717:Q *85:6 11.6364 
2 *85:6 *1709:B1 28.2847 
3 *85:6 *85:25 14.154 
4 *85:25 *1708:A 14.964 
5 *85:25 *85:34 0.723396 
6 *85:34 *85:38 1.85672 
7 *85:38 *1695:A 28.973 
8 *85:38 *85:63 11.1162 
9 *85:63 *1714:A2 9.24915 
10 *85:63 *85:70 6.82404 
11 *85:70 *85:82 19.2368 
12 *85:82 *85:84 4.5 
13 *85:84 *85:92 15.5295 
14 *85:92 *942:B 9.24915 
15 *85:92 *85:101 6.3326 
16 *85:101 *85:103 3.07775 
17 *85:103 *85:105 3.07775 
18 *85:105 *1699:B 22.6783 
19 *85:105 *940:B 18.5571 
20 *85:103 *950:SLEEP 13.7491 
21 *85:101 *948:B 24.8995 
22 *85:84 *85:149 2.6625 
23 *85:149 *1702:B 30.864 
24 *85:149 *1703:A 24.7167 
25 *85:82 *955:A 9.97254 
26 *85:70 *1711:A1 22.1574 
27 *85:34 *1712:B 9.24915 
*END

*D_NET *86 0.0146015
*CONN
*I *1701:B I *D sky130_fd_sc_hd__xor3_1
*I *1702:A I *D sky130_fd_sc_hd__xnor3_1
*I *948:A I *D sky130_fd_sc_hd__and3_1
*I *940:A I *D sky130_fd_sc_hd__and3_1
*I *955:SLEEP I *D sky130_fd_sc_hd__lpflow_isobufsrc_8
*I *1711:B1 I *D sky130_fd_sc_hd__a31oi_1
*I *1714:A1 I *D sky130_fd_sc_hd__a41oi_1
*I *1697:B I *D sky130_fd_sc_hd__and2_0
*I *1696:B I *D sky130_fd_sc_hd__nor2_1
*I *942:A I *D sky130_fd_sc_hd__nor2_4
*I *1699:A I *D sky130_fd_sc_hd__xor2_1
*I *950:A I *D sky130_fd_sc_hd__lpflow_isobufsrc_8
*I *1712:A I *D sky130_fd_sc_hd__and4_1
*I *1718:Q O *D sky130_fd_sc_hd__dfxtp_1
*CAP
1 *1701:B 0.000136692
2 *1702:A 0.000133241
3 *948:A 0.000187166
4 *940:A 0.000312991
5 *955:SLEEP 0
6 *1711:B1 0
7 *1714:A1 2.57138e-05
8 *1697:B 0
9 *1696:B 0
10 *942:A 9.35255e-05
11 *1699:A 0.000274804
12 *950:A 0
13 *1712:A 0.000733444
14 *1718:Q 0.000474163
15 *86:135 0.000591735
16 *86:133 0.000261184
17 *86:124 0.000313344
18 *86:118 0.000667357
19 *86:107 0.00035475
20 *86:56 0.000446657
21 *86:47 0.000712904
22 *86:41 0.000739922
23 *86:35 0.000269774
24 *86:18 0.00107637
25 *86:12 0.000286911
26 *86:10 0.000657925
27 *940:A *938:D 0.000162644
28 *940:A *417:20 6.50586e-05
29 *940:A *427:10 0
30 *942:A *934:D 0
31 *942:A *2283:A 2.5386e-05
32 *942:A *419:12 5.54078e-05
33 *948:A *421:25 1.80176e-05
34 *948:A *879:12 0.000367146
35 *1699:A *934:D 0
36 *1699:A *419:12 0.00016279
37 *1701:B *1700:A 0
38 *1701:B *92:62 0
39 *1712:A *1718:D 6.46124e-05
40 *1712:A *88:15 0.000338523
41 *1714:A1 *92:16 4.58003e-05
42 *86:10 *1705:B1 4.3116e-06
43 *86:10 *1715:B1 8.92614e-05
44 *86:10 *847:10 0.000130605
45 *86:12 *1705:B1 9.98029e-06
46 *86:12 *1715:B1 6.77678e-05
47 *86:12 *92:10 9.96342e-05
48 *86:12 *851:14 9.2346e-06
49 *86:18 *1715:B1 1.51735e-05
50 *86:18 *851:14 1.51735e-05
51 *86:35 *1698:A 0
52 *86:35 *1715:A1 0.000295981
53 *86:35 *92:20 3.18294e-05
54 *86:35 *417:14 0.000249799
55 *86:35 *851:14 0
56 *86:41 *925:B 0
57 *86:41 *1696:A 6.50727e-05
58 *86:41 *1698:A 0
59 *86:41 *417:14 0.000177787
60 *86:47 *1696:A 5.3103e-05
61 *86:47 *1698:A 7.85867e-05
62 *86:107 *1711:A3 0.000199541
63 *86:107 *845:10 5.75508e-05
64 *86:107 *847:22 0.00011818
65 *86:107 *886:43 0.000428168
66 *86:118 *845:10 0.000633988
67 *86:118 *886:43 0.000200728
68 *86:124 *92:62 0
69 *926:A *940:A 0.000172232
70 *926:A *86:124 0.000362216
71 *926:A *86:133 9.72686e-05
72 *926:A *86:135 0.000119367
73 *940:B *940:A 1.03403e-05
74 *948:B *940:A 0
75 *1699:B *1699:A 7.01935e-06
76 *1702:B *1702:A 1.87469e-05
77 *1702:B *86:124 0
78 *1702:C *86:118 0.000118166
79 *1711:A2 *86:107 3.29619e-05
80 *67:18 *1712:A 0
81 *67:18 *86:18 0
82 *80:14 *1702:A 0
83 *81:508 *940:A 0.000464856
84 *82:22 *1712:A 0
85 *82:22 *86:18 0
86 *84:106 *86:10 0
87 *85:25 *1712:A 6.01588e-05
88 *85:70 *1714:A1 5.07314e-05
89 *85:103 *940:A 0
*RES
1 *1718:Q *86:10 23.7847 
2 *86:10 *86:12 3.07775 
3 *86:12 *86:18 4.59499 
4 *86:18 *1712:A 19.8302 
5 *86:18 *86:35 9.97618 
6 *86:35 *86:41 8.30115 
7 *86:41 *86:47 15.7459 
8 *86:47 *950:A 9.24915 
9 *86:47 *86:56 6.3326 
10 *86:56 *1699:A 21.451 
11 *86:56 *942:A 16.8269 
12 *86:41 *1696:B 9.24915 
13 *86:35 *1697:B 13.7491 
14 *86:12 *1714:A1 15.0271 
15 *86:10 *86:107 10.9623 
16 *86:107 *1711:B1 9.24915 
17 *86:107 *86:118 15.2304 
18 *86:118 *86:124 12.8745 
19 *86:124 *955:SLEEP 9.24915 
20 *86:124 *86:133 5.778 
21 *86:133 *86:135 2.6625 
22 *86:135 *940:A 25.8553 
23 *86:135 *948:A 18.9094 
24 *86:133 *1702:A 17.6574 
25 *86:118 *1701:B 16.8269 
*END

*D_NET *88 0.00551438
*CONN
*P wtr_en I
*I *1693:A I *D sky130_fd_sc_hd__clkinv_1
*I *945:C_N I *D sky130_fd_sc_hd__nor4bb_4
*I *939:B I *D sky130_fd_sc_hd__and4b_4
*CAP
1 wtr_en 0.00139553
2 *1693:A 0.000422869
3 *945:C_N 0
4 *939:B 4.36455e-05
5 *88:26 0.000455212
6 *88:15 0.00147152
7 *939:B *417:14 0.000204043
8 *1693:A *1715:A1 0
9 *1693:A *1715:B1 5.22654e-06
10 *1693:A *417:14 0.000367219
11 *1693:A *851:14 3.92275e-05
12 *88:15 *1713:A 1.5714e-05
13 *88:26 *417:14 6.18527e-05
14 *939:A_N *1693:A 6.64453e-05
15 *1712:A *88:15 0.000338523
16 *67:18 *88:15 2.2947e-05
17 *82:22 *88:15 0
18 *83:180 *939:B 0.000171161
19 *83:180 *1693:A 9.01202e-05
20 *83:180 *88:26 0.000178272
21 *85:70 *1693:A 0.000164843
*RES
1 wtr_en *88:15 12.308 
2 *88:15 *939:B 11.6364 
3 *88:15 *88:26 2.41132 
4 *88:26 *945:C_N 9.24915 
5 *88:26 *1693:A 29.8711 
*END

*D_NET *89 0.00102858
*CONN
*I *923:A I *D sky130_fd_sc_hd__and2_0
*I *1695:X O *D sky130_fd_sc_hd__xor2_1
*CAP
1 *923:A 0.00043153
2 *1695:X 0.00043153
3 *923:A *933:D 0
4 *923:A *934:CLK 0
5 *923:A *1029:A1 0
6 *923:A *417:14 0
7 *81:410 *923:A 0.000117376
8 *81:425 *923:A 4.81452e-05
*RES
1 *1695:X *923:A 37.0087 
*END

*D_NET *90 0.00112518
*CONN
*I *924:B I *D sky130_fd_sc_hd__and2_0
*I *1699:X O *D sky130_fd_sc_hd__xor2_1
*CAP
1 *924:B 0.000351344
2 *1699:X 0.000351344
3 *924:B *932:CLK 8.51551e-05
4 *924:B *932:D 6.54102e-05
5 *924:B *936:D 7.35175e-05
6 *924:B *419:12 0.000170667
7 *924:B *873:14 0
8 *924:B *902:58 2.77419e-05
*RES
1 *1699:X *924:B 44.7892 
*END

*D_NET *91 0.0011511
*CONN
*I *925:B I *D sky130_fd_sc_hd__and2_0
*I *1698:Y O *D sky130_fd_sc_hd__nor2_1
*CAP
1 *925:B 0.000369208
2 *1698:Y 0.000369208
3 *925:B *934:CLK 0.000224395
4 *925:B *1698:A 7.50872e-05
5 *925:B *417:14 0
6 *925:B *417:20 0.000113197
7 *86:41 *925:B 0
*RES
1 *1698:Y *925:B 38.2278 
*END

*D_NET *92 0.00588198
*CONN
*I *1700:A I *D sky130_fd_sc_hd__xor2_1
*I *1701:A I *D sky130_fd_sc_hd__xor3_1
*I *926:B I *D sky130_fd_sc_hd__and2_0
*I *1714:B1 I *D sky130_fd_sc_hd__a41oi_1
*I *1697:A I *D sky130_fd_sc_hd__and2_0
*I *1696:A I *D sky130_fd_sc_hd__nor2_1
*I *1719:Q O *D sky130_fd_sc_hd__dfxtp_1
*CAP
1 *1700:A 0.00012511
2 *1701:A 9.64253e-05
3 *926:B 0
4 *1714:B1 0
5 *1697:A 0
6 *1696:A 0.000215715
7 *1719:Q 5.50286e-05
8 *92:62 0.000545557
9 *92:49 0.000698323
10 *92:20 0.000497625
11 *92:16 0.000654592
12 *92:10 0.000802012
13 *1696:A *1698:A 6.92705e-05
14 *1696:A *1713:A 0
15 *1696:A *417:14 0.000176542
16 *92:10 *851:14 9.60366e-05
17 *92:16 *847:24 1.03403e-05
18 *92:20 *1713:A 0
19 *92:20 *1715:A1 2.25583e-07
20 *92:20 *417:14 0.000235622
21 *92:20 *847:22 3.0577e-05
22 *92:49 *1705:B1 6.92705e-05
23 *926:A *92:49 3.20973e-05
24 *926:A *92:62 2.07365e-05
25 *955:A *92:62 6.27782e-05
26 *1701:B *1700:A 0
27 *1701:B *92:62 0
28 *1703:A *1700:A 0.00020579
29 *1703:A *92:62 0.000247246
30 *1714:A1 *92:16 4.58003e-05
31 *79:12 *1701:A 0.000115632
32 *83:170 *92:20 0
33 *85:63 *92:16 3.16065e-06
34 *85:70 *92:16 2.11196e-05
35 *85:70 *92:49 8.67835e-05
36 *85:82 *92:49 5.4782e-05
37 *85:82 *92:62 0.000259225
38 *85:149 *92:62 9.89147e-05
39 *86:12 *92:10 9.96342e-05
40 *86:35 *92:20 3.18294e-05
41 *86:41 *1696:A 6.50727e-05
42 *86:47 *1696:A 5.3103e-05
43 *86:124 *92:62 0
*RES
1 *1719:Q *92:10 20.0811 
2 *92:10 *92:16 6.17298 
3 *92:16 *92:20 11.315 
4 *92:20 *1696:A 20.3474 
5 *92:20 *1697:A 13.7491 
6 *92:16 *1714:B1 9.24915 
7 *92:10 *92:49 9.62117 
8 *92:49 *926:B 9.24915 
9 *92:49 *92:62 15.1143 
10 *92:62 *1701:A 16.691 
11 *92:62 *1700:A 17.6574 
*END

*D_NET *93 0.00129154
*CONN
*I *1674:C I *D sky130_fd_sc_hd__xnor3_1
*I *935:Q O *D sky130_fd_sc_hd__dfxtp_1
*CAP
1 *1674:C 0.000502146
2 *935:Q 0.000502146
3 *1674:C *936:CLK 2.84892e-05
4 *1674:C *936:D 9.27556e-06
5 *1674:C *1677:A 0.000122978
6 *1674:C *1677:B 5.71849e-05
7 *1674:C *1678:A2 6.93171e-05
*RES
1 *935:Q *1674:C 36.015 
*END

*D_NET *94 0.000922624
*CONN
*I *1676:C I *D sky130_fd_sc_hd__xnor3_1
*I *936:Q O *D sky130_fd_sc_hd__dfxtp_1
*CAP
1 *1676:C 0.000308818
2 *936:Q 0.000308818
3 *1676:C *827:8 0.000143031
4 *70:28 *1676:C 0.000161956
*RES
1 *936:Q *1676:C 27.4202 
*END

*D_NET *95 0.000824068
*CONN
*I *1675:C I *D sky130_fd_sc_hd__xnor3_1
*I *937:Q O *D sky130_fd_sc_hd__dfxtp_1
*CAP
1 *1675:C 0.000380206
2 *937:Q 0.000380206
3 *1675:C *824:10 0
4 *1675:C *828:12 6.3657e-05
*RES
1 *937:Q *1675:C 33.9654 
*END

*D_NET *96 0.000553482
*CONN
*I *1673:B I *D sky130_fd_sc_hd__xnor2_1
*I *938:Q O *D sky130_fd_sc_hd__dfxtp_1
*CAP
1 *1673:B 6.69288e-05
2 *938:Q 6.69288e-05
3 *1673:B *824:10 0.000331226
4 *1673:B *902:108 8.83981e-05
*RES
1 *938:Q *1673:B 22.5734 
*END

*D_NET *97 0.000340669
*CONN
*I *915:D I *D sky130_fd_sc_hd__dfxtp_1
*I *907:X O *D sky130_fd_sc_hd__and2_0
*CAP
1 *915:D 0.000157988
2 *907:X 0.000157988
3 *915:D *101:14 2.46935e-05
*RES
1 *907:X *915:D 31.2171 
*END

*D_NET *98 0.00176759
*CONN
*I *916:D I *D sky130_fd_sc_hd__dfxtp_1
*I *908:X O *D sky130_fd_sc_hd__and2_0
*CAP
1 *916:D 0.000541766
2 *908:X 0.000541766
3 *916:D *912:B 1.99435e-05
4 *908:B *916:D 0.000664115
*RES
1 *908:X *916:D 37.7625 
*END

*D_NET *99 0.000672421
*CONN
*I *917:D I *D sky130_fd_sc_hd__dfxtp_1
*I *909:X O *D sky130_fd_sc_hd__and2_0
*CAP
1 *917:D 0.000154679
2 *909:X 0.000154679
3 *917:D *917:CLK 0.000144232
4 *909:B *917:D 0.000218831
*RES
1 *909:X *917:D 22.917 
*END

*D_NET *100 0.000616029
*CONN
*I *918:D I *D sky130_fd_sc_hd__dfxtp_1
*I *910:X O *D sky130_fd_sc_hd__and2_0
*CAP
1 *918:D 0.00022488
2 *910:X 0.00022488
3 *918:D *918:CLK 3.90891e-05
4 *918:D *922:D 0
5 *910:A *918:D 0
6 *80:14 *918:D 0.000127179
*RES
1 *910:X *918:D 33.5366 
*END

*D_NET *101 0.00259927
*CONN
*I *919:D I *D sky130_fd_sc_hd__dfxtp_1
*I *911:X O *D sky130_fd_sc_hd__and2_0
*CAP
1 *919:D 0
2 *911:X 0.000932118
3 *101:14 0.000932118
4 *101:14 *920:CLK 0.000287527
5 *101:14 *946:A 0
6 *101:14 *886:152 6.27718e-05
7 *907:A *101:14 0
8 *915:D *101:14 2.46935e-05
9 *83:15 *101:14 3.40414e-05
10 *83:17 *101:14 0.000192802
11 *83:30 *101:14 6.12083e-05
12 *83:134 *101:14 7.19887e-05
*RES
1 *911:X *101:14 41.2057 
2 *101:14 *919:D 9.24915 
*END

*D_NET *102 0.00151552
*CONN
*I *920:D I *D sky130_fd_sc_hd__dfxtp_1
*I *912:X O *D sky130_fd_sc_hd__and2_0
*CAP
1 *920:D 0.000347908
2 *912:X 0.000347908
3 *920:D *911:B 7.26606e-05
4 *920:D *916:CLK 0.000110258
5 *920:D *2260:A 0
6 *920:D *428:16 0.000118485
7 *69:414 *920:D 0.000119713
8 *78:8 *920:D 0.000116903
9 *83:17 *920:D 0.000142251
10 *83:30 *920:D 0.000139435
*RES
1 *912:X *920:D 38.5846 
*END

*D_NET *103 0.000506843
*CONN
*I *921:D I *D sky130_fd_sc_hd__dfxtp_1
*I *913:X O *D sky130_fd_sc_hd__and2_0
*CAP
1 *921:D 0.000140051
2 *913:X 0.000140051
3 *921:D *821:12 0.00016133
4 *921:D *886:23 6.54102e-05
*RES
1 *913:X *921:D 31.3537 
*END

*D_NET *104 0.00211792
*CONN
*I *922:D I *D sky130_fd_sc_hd__dfxtp_1
*I *914:X O *D sky130_fd_sc_hd__and2_0
*CAP
1 *922:D 0.000791886
2 *914:X 0.000791886
3 *922:D *918:CLK 4.19412e-05
4 *922:D *886:33 0
5 *918:D *922:D 0
6 *944:A *922:D 0
7 *78:8 *922:D 6.86306e-05
8 *80:14 *922:D 1.36733e-05
9 *83:140 *922:D 0.000198357
10 *83:142 *922:D 0.000211546
*RES
1 *914:X *922:D 44.6796 
*END

*D_NET *105 0.00180741
*CONN
*I *911:B I *D sky130_fd_sc_hd__and2_0
*I *915:Q O *D sky130_fd_sc_hd__dfxtp_1
*CAP
1 *911:B 0.000385652
2 *915:Q 0.000385652
3 *911:B *2268:A 0.000508848
4 *908:B *911:B 2.57847e-05
5 *920:D *911:B 7.26606e-05
6 *83:13 *911:B 4.55145e-06
7 *83:15 *911:B 3.82252e-05
8 *83:17 *911:B 2.57302e-05
9 *83:134 *911:B 0.000360307
*RES
1 *915:Q *911:B 39.921 
*END

*D_NET *106 0.00190194
*CONN
*I *912:B I *D sky130_fd_sc_hd__and2_0
*I *916:Q O *D sky130_fd_sc_hd__dfxtp_1
*CAP
1 *912:B 0.000624187
2 *916:Q 0.000624187
3 *912:B *916:CLK 0.000633626
4 *916:D *912:B 1.99435e-05
*RES
1 *916:Q *912:B 36.125 
*END

*D_NET *107 0.00155135
*CONN
*I *913:B I *D sky130_fd_sc_hd__and2_0
*I *917:Q O *D sky130_fd_sc_hd__dfxtp_1
*CAP
1 *913:B 0.000405499
2 *917:Q 0.000405499
3 *913:B *917:CLK 0.000561132
4 *913:B *1670:B 5.62448e-05
5 *913:B *821:12 0.000122978
*RES
1 *917:Q *913:B 36.015 
*END

*D_NET *108 0.0011837
*CONN
*I *914:B I *D sky130_fd_sc_hd__and2_0
*I *918:Q O *D sky130_fd_sc_hd__dfxtp_1
*CAP
1 *914:B 0.000235603
2 *918:Q 0.000235603
3 *914:B *127:157 0.000304479
4 *83:138 *914:B 0.000160047
5 *83:140 *914:B 0.00016195
6 *83:212 *914:B 4.14089e-05
7 *83:214 *914:B 4.46057e-05
*RES
1 *918:Q *914:B 36.564 
*END

*D_NET *109 0.0016471
*CONN
*I *931:D I *D sky130_fd_sc_hd__dfxtp_1
*I *923:X O *D sky130_fd_sc_hd__and2_0
*CAP
1 *931:D 0.000448905
2 *923:X 0.000448905
3 *931:D *931:CLK 1.87611e-05
4 *931:D *933:D 0.000142151
5 *931:D *1029:A2 0.000331601
6 *931:D *1139:B1 0.000109106
7 *931:D *430:311 0
8 *81:425 *931:D 0.000147668
*RES
1 *923:X *931:D 40.3849 
*END

*D_NET *110 0.000383142
*CONN
*I *932:D I *D sky130_fd_sc_hd__dfxtp_1
*I *924:X O *D sky130_fd_sc_hd__and2_0
*CAP
1 *932:D 7.94565e-05
2 *924:X 7.94565e-05
3 *932:D *932:CLK 9.29777e-05
4 *932:D *419:12 3.88415e-05
5 *932:D *419:16 1.66398e-05
6 *924:B *932:D 6.54102e-05
7 *81:471 *932:D 1.03594e-05
*RES
1 *924:X *932:D 30.1079 
*END

*D_NET *111 0.000967108
*CONN
*I *933:D I *D sky130_fd_sc_hd__dfxtp_1
*I *925:X O *D sky130_fd_sc_hd__and2_0
*CAP
1 *933:D 0.000339374
2 *925:X 0.000339374
3 *933:D *934:CLK 4.07059e-05
4 *933:D *1029:A2 2.67514e-05
5 *923:A *933:D 0
6 *931:D *933:D 0.000142151
7 *81:425 *933:D 7.87523e-05
*RES
1 *925:X *933:D 36.8587 
*END

*D_NET *112 0.00146576
*CONN
*I *934:D I *D sky130_fd_sc_hd__dfxtp_1
*I *926:X O *D sky130_fd_sc_hd__and2_0
*CAP
1 *934:D 0.000501397
2 *926:X 0.000501397
3 *934:D *2277:A 0
4 *934:D *2283:A 0
5 *934:D *417:20 0.000110833
6 *934:D *421:10 0
7 *934:D *873:14 0.000344099
8 *942:A *934:D 0
9 *1699:A *934:D 0
10 *85:82 *934:D 8.03393e-06
11 *85:92 *934:D 0
*RES
1 *926:X *934:D 41.2843 
*END

*D_NET *113 0.000251718
*CONN
*I *935:D I *D sky130_fd_sc_hd__dfxtp_1
*I *927:X O *D sky130_fd_sc_hd__and2_0
*CAP
1 *935:D 0.000124785
2 *927:X 0.000124785
3 *935:D *935:CLK 2.14842e-06
4 *935:D *873:14 0
*RES
1 *927:X *935:D 30.3838 
*END

*D_NET *114 0.00312284
*CONN
*I *936:D I *D sky130_fd_sc_hd__dfxtp_1
*I *928:X O *D sky130_fd_sc_hd__and2_0
*CAP
1 *936:D 0.000784521
2 *928:X 0.000784521
3 *936:D *1678:B1 0.00020283
4 *936:D *417:51 6.46815e-05
5 *936:D *419:12 5.52211e-06
6 *936:D *419:16 0.000208076
7 *936:D *427:10 0.000882903
8 *924:B *936:D 7.35175e-05
9 *928:A *936:D 2.58616e-05
10 *1674:C *936:D 9.27556e-06
11 *1699:B *936:D 6.55265e-05
12 *81:484 *936:D 1.56049e-05
*RES
1 *928:X *936:D 49.9413 
*END

*D_NET *115 0.000810795
*CONN
*I *937:D I *D sky130_fd_sc_hd__dfxtp_1
*I *929:X O *D sky130_fd_sc_hd__and2_0
*CAP
1 *937:D 0.000383589
2 *929:X 0.000383589
3 *937:D *937:CLK 4.3616e-05
4 *937:D *873:14 0
5 *81:431 *937:D 0
*RES
1 *929:X *937:D 36.8643 
*END

*D_NET *116 0.0021614
*CONN
*I *938:D I *D sky130_fd_sc_hd__dfxtp_1
*I *930:X O *D sky130_fd_sc_hd__and2_0
*CAP
1 *938:D 0.000800777
2 *930:X 0.000800777
3 *938:D *427:10 0
4 *938:D *824:10 5.68237e-06
5 *938:D *902:108 1.87611e-05
6 *940:A *938:D 0.000162644
7 *1699:B *938:D 0.000111681
8 *81:471 *938:D 8.0209e-05
9 *81:508 *938:D 4.26754e-05
10 *85:103 *938:D 5.88662e-05
11 *85:105 *938:D 7.93324e-05
*RES
1 *930:X *938:D 47.3077 
*END

*D_NET *117 0.000336282
*CONN
*I *927:B I *D sky130_fd_sc_hd__and2_0
*I *931:Q O *D sky130_fd_sc_hd__dfxtp_1
*CAP
1 *927:B 0.000106063
2 *931:Q 0.000106063
3 *81:431 *927:B 0.000124157
*RES
1 *931:Q *927:B 30.4689 
*END

*D_NET *118 0.000497625
*CONN
*I *928:B I *D sky130_fd_sc_hd__and2_0
*I *932:Q O *D sky130_fd_sc_hd__dfxtp_1
*CAP
1 *928:B 0.000169541
2 *932:Q 0.000169541
3 *928:B *417:51 3.55179e-05
4 *81:471 *928:B 0.000114659
5 *81:508 *928:B 8.36586e-06
*RES
1 *932:Q *928:B 31.0235 
*END

*D_NET *119 0.000720931
*CONN
*I *929:B I *D sky130_fd_sc_hd__and2_0
*I *933:Q O *D sky130_fd_sc_hd__dfxtp_1
*CAP
1 *929:B 0.00014234
2 *933:Q 0.00014234
3 *929:B *873:14 0
4 *929:B *902:64 0.000215587
5 *81:452 *929:B 0.000220665
*RES
1 *933:Q *929:B 32.1327 
*END

*D_NET *120 0.00128479
*CONN
*I *930:B I *D sky130_fd_sc_hd__and2_0
*I *934:Q O *D sky130_fd_sc_hd__dfxtp_1
*CAP
1 *930:B 0.000439028
2 *934:Q 0.000439028
3 *930:B *417:20 2.18523e-06
4 *940:B *930:B 0.000262354
5 *1681:A *930:B 0
6 *81:508 *930:B 0.000142192
*RES
1 *934:Q *930:B 37.2968 
*END

*D_NET *121 0.0487275
*CONN
*I *1489:DE I *D sky130_fd_sc_hd__edfxtp_1
*I *1511:DE I *D sky130_fd_sc_hd__edfxtp_1
*I *1493:DE I *D sky130_fd_sc_hd__edfxtp_1
*I *1506:DE I *D sky130_fd_sc_hd__edfxtp_1
*I *1498:DE I *D sky130_fd_sc_hd__edfxtp_1
*I *1497:DE I *D sky130_fd_sc_hd__edfxtp_1
*I *1516:DE I *D sky130_fd_sc_hd__edfxtp_1
*I *1509:DE I *D sky130_fd_sc_hd__edfxtp_1
*I *1510:DE I *D sky130_fd_sc_hd__edfxtp_1
*I *1513:DE I *D sky130_fd_sc_hd__edfxtp_1
*I *1487:DE I *D sky130_fd_sc_hd__edfxtp_1
*I *1504:DE I *D sky130_fd_sc_hd__edfxtp_1
*I *2269:A I *D sky130_fd_sc_hd__buf_12
*I *1514:DE I *D sky130_fd_sc_hd__edfxtp_1
*I *941:Y O *D sky130_fd_sc_hd__nand2b_4
*CAP
1 *1489:DE 0.000191169
2 *1511:DE 0.00065708
3 *1493:DE 0.000204761
4 *1506:DE 0.00112975
5 *1498:DE 0.00087305
6 *1497:DE 0.000280816
7 *1516:DE 2.05057e-05
8 *1509:DE 7.78821e-05
9 *1510:DE 0
10 *1513:DE 0
11 *1487:DE 2.37667e-05
12 *1504:DE 7.70266e-05
13 *2269:A 0
14 *1514:DE 0.000817489
15 *941:Y 2.12792e-05
16 *121:180 0.0018719
17 *121:178 0.00133811
18 *121:176 0.000855009
19 *121:148 0.00161623
20 *121:137 0.00151999
21 *121:112 0.00185166
22 *121:106 0.00138942
23 *121:91 0.0014621
24 *121:80 0.00245367
25 *121:59 0.00228135
26 *121:42 0.00295374
27 *121:12 0.00121556
28 *121:6 0.0021626
29 *1489:DE *966:B 9.67296e-05
30 *1489:DE *1025:A2 1.5714e-05
31 *1489:DE *1025:A3 6.5945e-05
32 *1489:DE *1025:S1 4.75721e-06
33 *1489:DE *1265:C 0
34 *1489:DE *1489:D 1.59362e-06
35 *1489:DE *2292:A 9.03462e-06
36 *1489:DE *888:217 0.000100415
37 *1493:DE *1493:D 6.82878e-05
38 *1493:DE *888:244 0.000167076
39 *1497:DE *1065:S0 3.37073e-06
40 *1497:DE *1465:D 0.000217652
41 *1497:DE *1497:D 0.000141975
42 *1497:DE *1561:D 0.000548393
43 *1497:DE *871:111 1.66667e-05
44 *1497:DE *890:117 0
45 *1498:DE *1273:C 1.15492e-05
46 *1498:DE *1498:D 6.92705e-05
47 *1498:DE *1561:D 0.000103123
48 *1498:DE *418:459 0.000117719
49 *1498:DE *890:242 0.000115632
50 *1498:DE *890:246 3.2256e-05
51 *1504:DE *1504:CLK 2.1048e-05
52 *1504:DE *1504:D 6.1458e-05
53 *1506:DE *1196:B 3.34685e-05
54 *1506:DE *1378:DE 0
55 *1506:DE *1506:CLK 3.00829e-05
56 *1506:DE *1506:D 6.42418e-05
57 *1506:DE *1653:CLK 0.000207318
58 *1506:DE *2293:A 0.000243376
59 *1506:DE *2309:A 0.000148002
60 *1506:DE *888:238 0
61 *1506:DE *888:244 0.000165915
62 *1509:DE *1509:D 8.53392e-05
63 *1509:DE *417:351 7.02172e-06
64 *1511:DE *1383:DE 0.00120171
65 *1511:DE *417:465 7.92193e-05
66 *1511:DE *427:431 0
67 *1511:DE *537:16 3.77975e-05
68 *1511:DE *858:402 0.000392581
69 *1511:DE *878:148 0
70 *1511:DE *880:358 0.00181719
71 *1511:DE *880:362 0.000139344
72 *1511:DE *888:34 3.42041e-05
73 *1514:DE *1514:CLK 3.42041e-05
74 *1514:DE *1546:D 2.692e-05
75 *1514:DE *362:14 2.25343e-05
76 *1514:DE *417:63 0.000673622
77 *1514:DE *418:30 0
78 *1514:DE *421:51 0
79 *1514:DE *421:53 0
80 *121:12 *417:84 0
81 *121:12 *418:30 0.000100956
82 *121:12 *421:67 0
83 *121:12 *865:16 3.46533e-05
84 *121:42 *1376:B 0.00242275
85 *121:42 *418:30 1.65872e-05
86 *121:42 *887:79 0
87 *121:59 *1216:B 0.000602156
88 *121:59 *1487:D 0
89 *121:59 *1504:D 0
90 *121:59 *880:29 0
91 *121:80 *1015:A3 0.000237081
92 *121:80 *1513:CLK 3.39487e-05
93 *121:80 *1513:D 0.000136084
94 *121:91 *1145:A3 0.000137156
95 *121:91 *1510:D 0.000129623
96 *121:106 *1130:A2 4.35492e-05
97 *121:106 *124:226 4.00092e-05
98 *121:106 *533:18 6.54439e-05
99 *121:106 *858:379 0.000198937
100 *121:112 *1130:A1 0
101 *121:112 *1130:A3 7.31894e-05
102 *121:112 *1509:D 0.00014192
103 *121:112 *124:226 0.000283226
104 *121:112 *876:125 4.03125e-05
105 *121:112 *881:57 0
106 *121:112 *905:10 0.000765753
107 *121:112 *905:12 0.000344286
108 *121:137 *1125:A3 9.21925e-05
109 *121:137 *1127:S 0.000764335
110 *121:137 *124:100 0.00111749
111 *121:137 *417:351 1.82679e-05
112 *121:137 *418:443 0.000266177
113 *121:137 *876:131 7.85196e-05
114 *121:137 *905:12 0.000414651
115 *121:137 *905:22 5.04879e-05
116 *121:148 *1292:B 5.20862e-05
117 *121:148 *1465:D 0.00011497
118 *121:148 *1580:CLK 0.000327048
119 *121:148 *858:443 0
120 *121:148 *871:105 1.94472e-05
121 *121:148 *871:111 0.000227463
122 *121:148 *905:22 2.09889e-05
123 *121:176 *1025:S0 0.000161103
124 *121:176 *1025:S1 0.000564322
125 *121:176 *533:18 9.84017e-05
126 *121:176 *537:16 4.95352e-05
127 *121:176 *858:379 0.000966556
128 *121:176 *858:402 0.000358228
129 *121:178 *1025:A2 0.000104013
130 *121:178 *888:217 0.000166963
131 *121:178 *888:219 4.60518e-05
132 *121:180 *1457:D 0
133 *121:180 *858:406 0
134 *121:180 *888:219 0.000275989
135 *121:180 *888:223 0.000584883
136 *121:180 *888:238 0
137 *121:180 *906:117 0
138 *965:A *121:91 3.23874e-05
139 *1273:A *1498:DE 0.000113968
140 *17:23 *121:112 0.000121065
141 *22:31 *1514:DE 3.5925e-05
142 *22:41 *1514:DE 0.000290364
143 *22:45 *1514:DE 8.57722e-05
144 *22:70 *1514:DE 0.000101133
145 *23:27 *121:59 0.000104228
146 *23:29 *121:59 1.55462e-05
147 *25:19 *121:148 0.000124976
148 *83:57 *1514:DE 3.07232e-05
149 *83:65 *1514:DE 1.38872e-05
150 *83:65 *121:12 9.00257e-05
*RES
1 *941:Y *121:6 9.82786 
2 *121:6 *121:12 13.4263 
3 *121:12 *1514:DE 38.3842 
4 *121:12 *2269:A 13.7491 
5 *121:6 *121:42 34.7856 
6 *121:42 *1504:DE 15.7566 
7 *121:42 *121:59 33.8363 
8 *121:59 *1487:DE 9.65304 
9 *121:59 *121:80 25.8795 
10 *121:80 *1513:DE 9.24915 
11 *121:80 *121:91 28.6465 
12 *121:91 *1510:DE 9.24915 
13 *121:91 *121:106 10.0452 
14 *121:106 *121:112 33.5778 
15 *121:112 *1509:DE 11.341 
16 *121:112 *121:137 49.2027 
17 *121:137 *1516:DE 9.65304 
18 *121:137 *121:148 20.4506 
19 *121:148 *1497:DE 25.1206 
20 *121:148 *1498:DE 34.9085 
21 *121:106 *121:176 5.48391 
22 *121:176 *121:178 4.32351 
23 *121:178 *121:180 17.404 
24 *121:180 *1506:DE 43.7154 
25 *121:180 *1493:DE 18.6321 
26 *121:178 *1511:DE 28.6405 
27 *121:176 *1489:DE 19.7987 
*END

*D_NET *122 0.0096978
*CONN
*I *1647:DE I *D sky130_fd_sc_hd__edfxtp_1
*I *1386:DE I *D sky130_fd_sc_hd__edfxtp_1
*I *2262:A I *D sky130_fd_sc_hd__buf_12
*I *949:Y O *D sky130_fd_sc_hd__nand2b_4
*CAP
1 *1647:DE 0.00128548
2 *1386:DE 0.000416991
3 *2262:A 0.000155445
4 *949:Y 0
5 *122:29 0.00291691
6 *122:6 0.00136989
7 *1386:DE *1386:CLK 8.81676e-05
8 *1386:DE *1578:D 8.62625e-06
9 *1386:DE *428:16 6.62343e-05
10 *1386:DE *886:156 3.45222e-05
11 *1386:DE *886:164 7.02831e-05
12 *1647:DE *1647:D 0.000323695
13 *1647:DE *128:16 0.000122378
14 *1647:DE *422:16 1.48869e-05
15 *1647:DE *872:10 0.000576926
16 *1647:DE *875:20 0.000222609
17 *1647:DE *875:34 1.41689e-05
18 *2262:A *1376:B 6.08467e-05
19 *2262:A *423:24 0
20 *2262:A *874:28 0.000179875
21 *122:29 *1472:DE 3.61203e-05
22 *122:29 *1578:D 0.000404599
23 *122:29 *422:16 3.24105e-05
24 *122:29 *423:24 0
25 *122:29 *874:28 0.000529468
26 *122:29 *875:34 5.86405e-05
27 *122:29 *875:44 1.18423e-05
28 *122:29 *886:164 0.000138938
29 *122:29 *886:176 5.60291e-06
30 *122:29 *886:182 9.97838e-05
31 *122:29 *906:10 0
32 *941:B *2262:A 0
33 *83:44 *122:29 0.000452469
*RES
1 *949:Y *122:6 13.7491 
2 *122:6 *2262:A 17.9655 
3 *122:6 *122:29 40.9376 
4 *122:29 *1386:DE 28.5279 
5 *122:29 *1647:DE 36.3102 
*END

*D_NET *123 0.0304291
*CONN
*I *2321:A I *D sky130_fd_sc_hd__buf_6
*I *1472:DE I *D sky130_fd_sc_hd__edfxtp_1
*I *1463:DE I *D sky130_fd_sc_hd__edfxtp_1
*I *2319:A I *D sky130_fd_sc_hd__buf_6
*I *1456:DE I *D sky130_fd_sc_hd__edfxtp_1
*I *1462:DE I *D sky130_fd_sc_hd__edfxtp_1
*I *1464:DE I *D sky130_fd_sc_hd__edfxtp_1
*I *1475:DE I *D sky130_fd_sc_hd__edfxtp_1
*I *1454:DE I *D sky130_fd_sc_hd__edfxtp_1
*I *952:Y O *D sky130_fd_sc_hd__nand2_1
*CAP
1 *2321:A 0
2 *1472:DE 0.0020046
3 *1463:DE 2.37466e-05
4 *2319:A 0
5 *1456:DE 0.00150447
6 *1462:DE 0.00121773
7 *1464:DE 0.000459445
8 *1475:DE 0
9 *1454:DE 0
10 *952:Y 0.000800207
11 *123:122 0.00249552
12 *123:62 0.00359433
13 *123:43 0.00333782
14 *123:28 0.00320815
15 *123:20 0.00347238
16 *123:16 0.00118176
17 *123:10 0.00133436
18 *1456:DE *1042:A1 1.48784e-05
19 *1456:DE *1200:B 0.000110684
20 *1456:DE *1456:D 3.39728e-05
21 *1456:DE *1584:CLK 0.000267404
22 *1456:DE *418:44 0.000192188
23 *1456:DE *459:18 0.000142892
24 *1456:DE *884:268 6.36477e-05
25 *1462:DE *1116:A3 0.000354455
26 *1462:DE *1462:CLK 3.91818e-05
27 *1462:DE *1462:D 3.15447e-05
28 *1464:DE *860:82 0
29 *1464:DE *862:10 1.90128e-05
30 *1464:DE *882:40 0
31 *1472:DE *1019:A2 0.000553669
32 *1472:DE *2291:A 0
33 *1472:DE *127:114 0
34 *1472:DE *423:24 3.86354e-05
35 *1472:DE *887:10 2.02035e-05
36 *123:10 *1463:CLK 0
37 *123:10 *127:20 0
38 *123:10 *424:35 3.21432e-05
39 *123:10 *424:45 7.30688e-05
40 *123:16 *1463:CLK 0
41 *123:16 *1463:D 0
42 *123:16 *418:289 7.20028e-05
43 *123:16 *424:45 3.12396e-05
44 *123:16 *424:53 0
45 *123:16 *865:16 0
46 *123:16 *865:30 0
47 *123:16 *903:27 0.000226402
48 *123:20 *865:30 0.000324751
49 *123:20 *903:27 0
50 *123:20 *904:12 0
51 *123:28 *1095:A2 8.11886e-06
52 *123:28 *1454:D 3.15447e-05
53 *123:28 *1556:DE 3.4248e-05
54 *123:28 *2288:A 0
55 *123:28 *424:55 0
56 *123:28 *424:61 0
57 *123:28 *424:67 0
58 *123:28 *865:30 0.000292445
59 *123:28 *873:55 0.000231136
60 *123:28 *903:27 0
61 *123:28 *903:52 8.12668e-05
62 *123:43 *1010:A1 2.14494e-05
63 *123:43 *1475:D 0.000276543
64 *123:43 *424:456 0.000321972
65 *123:43 *485:20 0.00010238
66 *123:43 *890:197 1.04816e-05
67 *123:43 *903:215 0.000194377
68 *123:62 *1114:A2 6.6834e-05
69 *123:62 *1411:DE 0
70 *123:62 *521:22 0
71 *123:62 *860:70 0.000160808
72 *123:62 *863:45 0
73 *123:62 *867:16 0.000164164
74 *123:62 *880:41 0
75 *123:62 *882:32 0.000125375
76 *123:62 *882:34 0
77 *123:62 *890:197 1.99543e-06
78 *123:62 *896:16 0
79 *123:122 *1258:B 2.16355e-05
80 *123:122 *1258:C 0.000104946
81 *123:122 *1354:C 6.7929e-05
82 *123:122 *1642:D 4.41269e-05
83 *952:A *123:122 0.00075271
84 *1219:A *123:43 0
85 *68:77 *123:16 0
86 *69:212 *123:43 0
87 *122:29 *1472:DE 3.61203e-05
*RES
1 *952:Y *123:10 21.4269 
2 *123:10 *123:16 28.9272 
3 *123:16 *123:20 10.4845 
4 *123:20 *123:28 46.461 
5 *123:28 *1454:DE 9.24915 
6 *123:28 *123:43 44.4005 
7 *123:43 *1475:DE 9.24915 
8 *123:43 *123:62 46.596 
9 *123:62 *1464:DE 24.6502 
10 *123:62 *1462:DE 41.9254 
11 *123:20 *1456:DE 39.7974 
12 *123:16 *2319:A 9.24915 
13 *123:10 *1463:DE 14.153 
14 *952:Y *123:122 23.8617 
15 *123:122 *1472:DE 33.7376 
16 *123:122 *2321:A 9.24915 
*END

*D_NET *124 0.0620379
*CONN
*I *1551:DE I *D sky130_fd_sc_hd__edfxtp_1
*I *1574:DE I *D sky130_fd_sc_hd__edfxtp_1
*I *1553:DE I *D sky130_fd_sc_hd__edfxtp_1
*I *1575:DE I *D sky130_fd_sc_hd__edfxtp_1
*I *1577:DE I *D sky130_fd_sc_hd__edfxtp_1
*I *1557:DE I *D sky130_fd_sc_hd__edfxtp_1
*I *1562:DE I *D sky130_fd_sc_hd__edfxtp_1
*I *1570:DE I *D sky130_fd_sc_hd__edfxtp_1
*I *1561:DE I *D sky130_fd_sc_hd__edfxtp_1
*I *1565:DE I *D sky130_fd_sc_hd__edfxtp_1
*I *1563:DE I *D sky130_fd_sc_hd__edfxtp_1
*I *1580:DE I *D sky130_fd_sc_hd__edfxtp_1
*I *1573:DE I *D sky130_fd_sc_hd__edfxtp_1
*I *1568:DE I *D sky130_fd_sc_hd__edfxtp_1
*I *1578:DE I *D sky130_fd_sc_hd__edfxtp_1
*I *2318:A I *D sky130_fd_sc_hd__buf_12
*I *954:Y O *D sky130_fd_sc_hd__nand2_4
*CAP
1 *1551:DE 0.000109158
2 *1574:DE 0.000148761
3 *1553:DE 0.000287159
4 *1575:DE 2.07835e-05
5 *1577:DE 0
6 *1557:DE 0.00125943
7 *1562:DE 0.000652178
8 *1570:DE 0
9 *1561:DE 1.66041e-05
10 *1565:DE 1.69985e-05
11 *1563:DE 0.00133735
12 *1580:DE 6.84207e-05
13 *1573:DE 0
14 *1568:DE 0.000379038
15 *1578:DE 3.43238e-05
16 *2318:A 0
17 *954:Y 0.000231104
18 *124:242 0.00216877
19 *124:232 0.00350473
20 *124:226 0.00287599
21 *124:211 0.00221396
22 *124:174 0.00156921
23 *124:133 0.00301397
24 *124:123 0.00273619
25 *124:104 0.00138854
26 *124:100 0.00159612
27 *124:89 0.000639581
28 *124:83 0.00304288
29 *124:62 0.00253324
30 *124:56 0.00183228
31 *124:46 0.00180049
32 *124:27 0.00180551
33 *124:12 0.000995556
34 *1551:DE *418:360 4.57667e-05
35 *1551:DE *423:331 9.42407e-05
36 *1553:DE *1265:C 0
37 *1553:DE *1553:D 4.60386e-05
38 *1553:DE *2292:A 7.91081e-05
39 *1553:DE *888:132 0.000201734
40 *1553:DE *888:138 0
41 *1557:DE *1127:A1 0.000147282
42 *1557:DE *1557:D 3.15154e-05
43 *1561:DE *890:62 3.44641e-05
44 *1562:DE *1466:DE 0.000381139
45 *1562:DE *427:472 0.000756084
46 *1562:DE *427:482 0.000237244
47 *1562:DE *465:24 0.000373642
48 *1563:DE *1075:A3 6.46135e-05
49 *1563:DE *1211:B 0
50 *1563:DE *1563:D 9.49674e-05
51 *1563:DE *465:34 0.000225731
52 *1563:DE *487:14 0
53 *1563:DE *876:186 1.66626e-05
54 *1565:DE *1181:B 7.35086e-06
55 *1568:DE *1019:A2 0
56 *1568:DE *863:16 3.43037e-05
57 *1568:DE *863:20 0.000166476
58 *1568:DE *897:98 0.000477426
59 *1574:DE *1131:S0 0
60 *1574:DE *1574:D 0
61 *1574:DE *418:396 3.81893e-05
62 *1578:DE *418:320 8.52404e-05
63 *1580:DE *1580:D 3.39728e-05
64 *1580:DE *876:133 4.70406e-05
65 *124:12 *421:51 0.000199604
66 *124:27 *362:14 0.00102749
67 *124:27 *886:182 0
68 *124:27 *906:10 0.000366212
69 *124:46 *1015:A2 5.99155e-05
70 *124:46 *1016:S0 5.28189e-05
71 *124:46 *533:18 0.00052244
72 *124:46 *537:16 0.00285351
73 *124:46 *886:176 0
74 *124:46 *906:10 3.77568e-05
75 *124:56 *1015:A2 0.000339148
76 *124:56 *1015:S1 0
77 *124:56 *1016:S0 0.000387657
78 *124:56 *2286:A 5.34415e-05
79 *124:56 *883:31 8.03504e-05
80 *124:62 *1100:A1 0
81 *124:62 *1100:A2 0.000288368
82 *124:62 *1100:S1 0
83 *124:62 *441:10 0.000200173
84 *124:62 *882:20 0.00035868
85 *124:83 *858:431 1.71028e-05
86 *124:83 *876:125 7.02443e-05
87 *124:83 *881:379 4.75571e-06
88 *124:83 *897:98 0.00375366
89 *124:83 *905:12 0.00017614
90 *124:89 *325:14 6.08467e-05
91 *124:89 *876:125 0.000124407
92 *124:89 *905:12 0.000273383
93 *124:100 *325:14 3.75221e-05
94 *124:100 *418:443 0.001161
95 *124:100 *876:131 0
96 *124:104 *1580:D 6.00269e-05
97 *124:104 *418:443 6.87335e-05
98 *124:123 *1273:C 2.652e-05
99 *124:123 *1561:D 0
100 *124:123 *2294:A 0.000186134
101 *124:123 *871:125 2.57117e-05
102 *124:123 *876:133 0.00015531
103 *124:123 *880:173 0
104 *124:123 *880:175 0
105 *124:123 *905:22 5.11496e-05
106 *124:123 *905:36 2.80988e-05
107 *124:133 *1085:S0 0.000159576
108 *124:133 *1211:B 0
109 *124:133 *1369:B 0.000573487
110 *124:133 *1469:D 3.37023e-05
111 *124:133 *876:186 0.000657484
112 *124:133 *880:175 0
113 *124:133 *890:76 0
114 *124:133 *905:36 1.36282e-05
115 *124:133 *905:49 4.34566e-05
116 *124:174 *1466:CLK 0.000110458
117 *124:174 *1570:CLK 0.000216467
118 *124:174 *1570:D 3.14375e-05
119 *124:174 *423:377 0.000509092
120 *124:211 *1577:D 0.000135329
121 *124:226 *1130:A2 8.05698e-05
122 *124:226 *1130:A3 2.60879e-06
123 *124:226 *1131:S0 0
124 *124:226 *1132:A1 0
125 *124:226 *1145:A0 6.77702e-05
126 *124:226 *1574:D 8.28675e-06
127 *124:226 *533:18 0
128 *124:226 *881:40 0.000109803
129 *124:226 *881:57 6.89016e-06
130 *124:226 *881:525 0.000552649
131 *124:232 *1025:S0 5.56072e-05
132 *124:232 *2292:A 0.000128599
133 *124:232 *533:18 3.52767e-05
134 *124:242 *966:B 0.00045465
135 *124:242 *1287:B 1.13735e-05
136 *124:242 *1287:C 0.000287751
137 *124:242 *1575:D 1.72312e-05
138 *124:242 *2292:A 1.91246e-05
139 *124:242 *861:99 0.000393288
140 *124:242 *864:67 0.000396814
141 *966:A *124:242 1.42265e-05
142 *1287:A *124:242 6.08467e-05
143 *8:78 *1563:DE 0
144 *19:21 *124:242 9.97735e-05
145 *27:44 *1553:DE 0
146 *68:73 *124:12 0.00020308
147 *121:106 *124:226 4.00092e-05
148 *121:112 *124:226 0.000283226
149 *121:137 *124:100 0.00111749
*RES
1 *954:Y *124:12 25.2386 
2 *124:12 *2318:A 9.24915 
3 *124:12 *124:27 25.0038 
4 *124:27 *1578:DE 14.7076 
5 *124:27 *124:46 12.7679 
6 *124:46 *124:56 23.75 
7 *124:56 *124:62 26.9337 
8 *124:62 *1568:DE 21.8843 
9 *124:62 *124:83 11.9054 
10 *124:83 *124:89 11.3487 
11 *124:89 *1573:DE 9.24915 
12 *124:89 *124:100 27.1254 
13 *124:100 *124:104 6.65625 
14 *124:104 *1580:DE 15.6797 
15 *124:104 *124:123 27.028 
16 *124:123 *124:133 44.2862 
17 *124:133 *1563:DE 41.6597 
18 *124:133 *1565:DE 14.153 
19 *124:123 *1561:DE 14.153 
20 *124:100 *124:174 27.727 
21 *124:174 *1570:DE 9.24915 
22 *124:174 *1562:DE 42.9621 
23 *124:83 *1557:DE 40.7137 
24 *124:56 *124:211 12.1048 
25 *124:211 *1577:DE 9.24915 
26 *124:211 *124:226 48.2402 
27 *124:226 *124:232 9.31163 
28 *124:232 *124:242 47.2809 
29 *124:242 *1575:DE 14.153 
30 *124:232 *1553:DE 21.9487 
31 *124:226 *1574:DE 17.4466 
32 *124:46 *1551:DE 16.5161 
*END

*D_NET *125 0.0407161
*CONN
*I *1609:DE I *D sky130_fd_sc_hd__edfxtp_1
*I *1585:DE I *D sky130_fd_sc_hd__edfxtp_1
*I *1607:DE I *D sky130_fd_sc_hd__edfxtp_1
*I *1589:DE I *D sky130_fd_sc_hd__edfxtp_1
*I *1602:DE I *D sky130_fd_sc_hd__edfxtp_1
*I *1594:DE I *D sky130_fd_sc_hd__edfxtp_1
*I *1597:DE I *D sky130_fd_sc_hd__edfxtp_1
*I *1606:DE I *D sky130_fd_sc_hd__edfxtp_1
*I *1583:DE I *D sky130_fd_sc_hd__edfxtp_1
*I *2261:A I *D sky130_fd_sc_hd__buf_12
*I *957:Y O *D sky130_fd_sc_hd__nand2_4
*CAP
1 *1609:DE 0.000104923
2 *1585:DE 0.00030808
3 *1607:DE 0.000203513
4 *1589:DE 3.80532e-05
5 *1602:DE 4.0137e-05
6 *1594:DE 0.000148859
7 *1597:DE 0.000635625
8 *1606:DE 0
9 *1583:DE 0.000335513
10 *2261:A 0
11 *957:Y 0.000402928
12 *125:99 0.00188667
13 *125:97 0.00175936
14 *125:93 0.00180727
15 *125:79 0.00260097
16 *125:71 0.00246549
17 *125:54 0.0019299
18 *125:44 0.00184572
19 *125:23 0.00225468
20 *125:8 0.00159906
21 *1583:DE *1016:A1 0.000231543
22 *1583:DE *1016:A2 1.35449e-05
23 *1583:DE *1016:A3 3.28798e-05
24 *1583:DE *1016:S0 0
25 *1583:DE *1391:D 6.70069e-05
26 *1583:DE *1583:D 8.41348e-05
27 *1585:DE *1585:CLK 0.00017419
28 *1585:DE *1585:D 9.91963e-05
29 *1585:DE *888:384 0.000114865
30 *1589:DE *1589:CLK 8.11133e-05
31 *1594:DE *1594:D 0.000155118
32 *1594:DE *890:282 0.000171273
33 *1597:DE *1341:C 4.13714e-05
34 *1597:DE *1402:CLK 0
35 *1597:DE *1402:D 0
36 *1597:DE *1405:D 9.76858e-05
37 *1597:DE *1594:D 0.000129499
38 *1597:DE *1597:CLK 3.39728e-05
39 *1597:DE *126:139 0.00051298
40 *1597:DE *285:26 0.000163478
41 *1597:DE *427:512 0.000111197
42 *1597:DE *864:79 0
43 *1597:DE *878:197 7.14746e-05
44 *1602:DE *1602:CLK 8.11133e-05
45 *1607:DE *1026:S0 1.62073e-05
46 *1607:DE *1607:CLK 0.000111722
47 *1607:DE *1607:D 3.14375e-05
48 *1607:DE *1639:CLK 0
49 *1607:DE *861:86 6.24695e-05
50 *1607:DE *888:99 0
51 *1609:DE *1000:C 0.000124903
52 *1609:DE *1417:D 0
53 *125:8 *126:16 0.000115827
54 *125:8 *428:16 5.73228e-05
55 *125:23 *958:B 0.000126635
56 *125:23 *1016:A1 0.000226865
57 *125:23 *1519:D 5.49079e-06
58 *125:23 *1583:D 5.6666e-05
59 *125:23 *126:16 0.00092649
60 *125:23 *126:35 0.000132235
61 *125:23 *857:8 6.08467e-05
62 *125:23 *872:37 7.99351e-05
63 *125:44 *864:20 0
64 *125:54 *1000:C 5.60705e-05
65 *125:54 *1417:D 1.04748e-05
66 *125:54 *1606:CLK 6.36477e-05
67 *125:54 *1606:D 3.15154e-05
68 *125:54 *872:153 0.00027928
69 *125:54 *878:57 2.1203e-06
70 *125:54 *878:68 0.00021217
71 *125:54 *878:83 0.000405053
72 *125:54 *878:104 0.000849841
73 *125:71 *1542:DE 0.000222163
74 *125:71 *1606:D 0.000371644
75 *125:71 *126:50 3.88415e-05
76 *125:71 *126:54 1.55652e-05
77 *125:71 *861:44 5.91176e-05
78 *125:71 *861:65 0.000651825
79 *125:71 *878:104 5.23657e-06
80 *125:71 *888:165 0
81 *125:79 *1521:D 1.40158e-05
82 *125:79 *126:54 4.23655e-05
83 *125:79 *126:75 0.000422325
84 *125:79 *861:65 6.25468e-06
85 *125:79 *864:61 0
86 *125:79 *888:149 0.000101368
87 *125:79 *888:384 8.04524e-06
88 *125:93 *1397:D 0.000367283
89 *125:93 *1415:D 0.000198362
90 *125:93 *1589:CLK 0.000612762
91 *125:93 *126:89 0.000815552
92 *125:93 *861:86 0.000555974
93 *125:93 *870:56 2.13778e-05
94 *125:93 *870:62 0.00027817
95 *125:93 *870:64 0.00022778
96 *125:93 *870:76 0.000121726
97 *125:93 *888:99 0
98 *125:97 *1301:B 7.77309e-06
99 *125:97 *1397:CLK 1.65078e-05
100 *125:97 *1397:D 5.21927e-05
101 *125:97 *1525:D 0.00014035
102 *125:97 *1634:D 0.000161951
103 *125:97 *126:89 0
104 *125:97 *341:20 0.00017359
105 *125:97 *427:442 0.000673661
106 *125:97 *427:456 0.00054156
107 *125:97 *870:76 4.16032e-05
108 *125:97 *880:425 2.53624e-06
109 *125:97 *889:267 6.08697e-06
110 *125:97 *889:278 0.000221801
111 *125:99 *1072:A1 0
112 *125:99 *1072:S 0
113 *125:99 *1634:CLK 4.01573e-05
114 *125:99 *1634:D 0.000734446
115 *125:99 *1634:DE 0
116 *125:99 *126:118 0
117 *125:99 *126:139 9.31996e-05
118 *125:99 *864:79 0
119 *125:99 *870:98 0
120 *125:99 *880:425 5.21758e-06
121 *125:99 *889:243 5.03723e-05
122 *125:99 *889:267 9.38714e-05
123 *957:A *125:8 6.08467e-05
124 *18:13 *125:71 2.82987e-06
125 *27:15 *1585:DE 1.68821e-05
126 *27:32 *1585:DE 0
127 *69:461 *1583:DE 0.000183748
128 *69:461 *125:44 0.00210691
129 *69:489 *125:71 0.00148133
130 *69:489 *125:79 0.00176192
131 *82:22 *125:44 7.4181e-06
*RES
1 *957:Y *125:8 19.4249 
2 *125:8 *2261:A 9.24915 
3 *125:8 *125:23 32.5362 
4 *125:23 *1583:DE 24.1416 
5 *125:23 *125:44 9.5411 
6 *125:44 *125:54 32.4302 
7 *125:54 *1606:DE 9.24915 
8 *125:54 *125:71 22.0781 
9 *125:71 *125:79 12.7499 
10 *125:79 *125:93 46.838 
11 *125:93 *125:97 27.4799 
12 *125:97 *125:99 32.5607 
13 *125:99 *1597:DE 36.3812 
14 *125:99 *1594:DE 18.7225 
15 *125:97 *1602:DE 14.7076 
16 *125:93 *1589:DE 14.7076 
17 *125:79 *1607:DE 18.732 
18 *125:71 *1585:DE 21.9487 
19 *125:44 *1609:DE 16.6079 
*END

*D_NET *126 0.0397911
*CONN
*I *2260:A I *D sky130_fd_sc_hd__buf_12
*I *1542:DE I *D sky130_fd_sc_hd__edfxtp_1
*I *1543:DE I *D sky130_fd_sc_hd__edfxtp_1
*I *1538:DE I *D sky130_fd_sc_hd__edfxtp_1
*I *1533:DE I *D sky130_fd_sc_hd__edfxtp_1
*I *1530:DE I *D sky130_fd_sc_hd__edfxtp_1
*I *1525:DE I *D sky130_fd_sc_hd__edfxtp_1
*I *1521:DE I *D sky130_fd_sc_hd__edfxtp_1
*I *1545:DE I *D sky130_fd_sc_hd__edfxtp_1
*I *1519:DE I *D sky130_fd_sc_hd__edfxtp_1
*I *959:Y O *D sky130_fd_sc_hd__nand2_4
*CAP
1 *2260:A 0.000183426
2 *1542:DE 0.000466807
3 *1543:DE 1.66945e-05
4 *1538:DE 4.91704e-05
5 *1533:DE 0.000331586
6 *1530:DE 5.33807e-05
7 *1525:DE 0
8 *1521:DE 0.000188744
9 *1545:DE 0
10 *1519:DE 0
11 *959:Y 0.00071734
12 *126:139 0.00130346
13 *126:118 0.00199759
14 *126:104 0.00157039
15 *126:93 0.000640604
16 *126:89 0.00100814
17 *126:83 0.0014015
18 *126:75 0.00161362
19 *126:54 0.00210616
20 *126:50 0.00206956
21 *126:35 0.00203283
22 *126:16 0.00187998
23 *126:10 0.00154511
24 *1521:DE *1521:D 0.000225198
25 *1521:DE *870:14 4.69495e-06
26 *1521:DE *888:149 0
27 *1533:DE *1309:C 0.00016763
28 *1533:DE *1533:CLK 3.43037e-05
29 *1533:DE *1597:D 0.000164125
30 *1533:DE *285:26 0.000194583
31 *1533:DE *427:512 0.000380035
32 *1542:DE *1146:S0 0
33 *1542:DE *1542:D 0.000148389
34 *1542:DE *1606:D 1.94327e-05
35 *1542:DE *888:163 5.4275e-05
36 *1542:DE *888:357 3.82403e-05
37 *1543:DE *1543:CLK 3.43037e-05
38 *2260:A *856:8 0
39 *2260:A *857:14 0
40 *126:10 *2279:A 2.77625e-06
41 *126:10 *427:245 6.27718e-05
42 *126:10 *429:16 0.000265953
43 *126:10 *857:14 0
44 *126:16 *958:B 2.29454e-05
45 *126:16 *1231:B 6.64392e-05
46 *126:16 *1519:D 3.57898e-05
47 *126:16 *429:16 0.00016553
48 *126:16 *872:37 0.000203967
49 *126:35 *1016:A2 8.91253e-05
50 *126:35 *1545:D 3.34188e-05
51 *126:50 *1146:A2 2.54522e-05
52 *126:50 *1350:C 0.000104634
53 *126:50 *1606:CLK 0.000203756
54 *126:50 *1638:D 0.000518578
55 *126:50 *864:34 0.000379978
56 *126:50 *888:163 4.23614e-06
57 *126:50 *888:165 1.59362e-06
58 *126:54 *427:366 0.000349649
59 *126:54 *861:44 0.000470592
60 *126:54 *864:53 0.00124745
61 *126:75 *1543:D 1.13152e-05
62 *126:75 *417:477 0.000101182
63 *126:75 *864:53 5.28209e-05
64 *126:75 *864:61 0.000257318
65 *126:75 *878:142 0.000103579
66 *126:75 *888:99 0
67 *126:83 *1543:D 1.59362e-06
68 *126:89 *1026:S0 2.29959e-05
69 *126:89 *1047:S 0.00136192
70 *126:89 *1397:CLK 7.38598e-05
71 *126:89 *1397:D 3.9739e-05
72 *126:89 *1589:CLK 0.000977726
73 *126:89 *861:86 0.000262038
74 *126:89 *883:131 8.27003e-05
75 *126:89 *883:180 0.000415868
76 *126:89 *889:289 3.49773e-05
77 *126:93 *1525:D 0.000131208
78 *126:104 *1110:S0 9.62971e-05
79 *126:104 *1621:D 0.000146657
80 *126:104 *864:67 0.000114616
81 *126:104 *864:75 0.00143023
82 *126:104 *883:131 7.58044e-05
83 *126:104 *883:157 0.000468485
84 *126:118 *1110:S0 6.47701e-05
85 *126:118 *1634:CLK 0
86 *126:118 *1634:DE 0
87 *126:118 *861:103 0.000193114
88 *126:118 *864:75 0.000397521
89 *126:118 *864:79 0
90 *126:139 *1072:A1 0.000463561
91 *126:139 *1597:D 3.88852e-05
92 *126:139 *1626:CLK 0
93 *126:139 *285:26 0.000246111
94 *126:139 *427:497 0
95 *126:139 *870:104 0
96 *126:139 *878:197 7.50722e-05
97 *126:139 *880:275 0.000109421
98 *920:D *2260:A 0
99 *1350:A *126:50 0.000450708
100 *1597:DE *126:139 0.00051298
101 *8:74 *1533:DE 0
102 *21:27 *126:35 0.000141368
103 *21:33 *126:35 0.000264304
104 *27:32 *1521:DE 6.9562e-05
105 *69:414 *126:10 0
106 *69:489 *126:54 0.000166062
107 *69:503 *126:83 0.000614172
108 *125:8 *126:16 0.000115827
109 *125:23 *126:16 0.00092649
110 *125:23 *126:35 0.000132235
111 *125:71 *1542:DE 0.000222163
112 *125:71 *126:50 3.88415e-05
113 *125:71 *126:54 1.55652e-05
114 *125:79 *126:54 4.23655e-05
115 *125:79 *126:75 0.000422325
116 *125:93 *126:89 0.000815552
117 *125:97 *126:89 0
118 *125:99 *126:118 0
119 *125:99 *126:139 9.31996e-05
*RES
1 *959:Y *126:10 26.8364 
2 *126:10 *126:16 24.4235 
3 *126:16 *1519:DE 9.24915 
4 *126:16 *126:35 40.0059 
5 *126:35 *1545:DE 9.24915 
6 *126:35 *126:50 30.2932 
7 *126:50 *126:54 6.47828 
8 *126:54 *1521:DE 22.4951 
9 *126:54 *126:75 7.76389 
10 *126:75 *126:83 17.656 
11 *126:83 *126:89 45.922 
12 *126:89 *126:93 6.6099 
13 *126:93 *1525:DE 9.24915 
14 *126:93 *126:104 32.2478 
15 *126:104 *126:118 32.118 
16 *126:118 *1530:DE 10.2076 
17 *126:118 *126:139 44.0899 
18 *126:139 *1533:DE 33.6327 
19 *126:104 *1538:DE 14.7076 
20 *126:75 *1543:DE 14.153 
21 *126:50 *1542:DE 27.0484 
22 *126:10 *2260:A 18.0727 
*END

*D_NET *127 0.0366297
*CONN
*I *2268:A I *D sky130_fd_sc_hd__buf_6
*I *1642:DE I *D sky130_fd_sc_hd__edfxtp_1
*I *2267:A I *D sky130_fd_sc_hd__buf_6
*I *1616:DE I *D sky130_fd_sc_hd__edfxtp_1
*I *1620:DE I *D sky130_fd_sc_hd__edfxtp_1
*I *1631:DE I *D sky130_fd_sc_hd__edfxtp_1
*I *1643:DE I *D sky130_fd_sc_hd__edfxtp_1
*I *1618:DE I *D sky130_fd_sc_hd__edfxtp_1
*I *1628:DE I *D sky130_fd_sc_hd__edfxtp_1
*I *1623:DE I *D sky130_fd_sc_hd__edfxtp_1
*I *944:Y O *D sky130_fd_sc_hd__nand2_1
*CAP
1 *2268:A 0.00113411
2 *1642:DE 6.36159e-05
3 *2267:A 3.09114e-05
4 *1616:DE 0.000326004
5 *1620:DE 1.71478e-05
6 *1631:DE 7.56017e-05
7 *1643:DE 3.43238e-05
8 *1618:DE 1.65908e-05
9 *1628:DE 0.000459484
10 *1623:DE 8.38135e-05
11 *944:Y 3.20194e-05
12 *127:157 0.00173772
13 *127:118 0.00066087
14 *127:114 0.00236235
15 *127:57 0.000529573
16 *127:53 0.00178243
17 *127:47 0.00277197
18 *127:45 0.00202044
19 *127:39 0.00162409
20 *127:20 0.00226358
21 *127:10 0.00478719
22 *127:6 0.00191909
23 *1616:DE *1376:B 0.000157107
24 *1616:DE *1616:CLK 3.61132e-05
25 *1616:DE *128:22 0.000226969
26 *1616:DE *128:32 0.00016802
27 *1616:DE *856:10 0.000168706
28 *1618:DE *894:294 3.44641e-05
29 *1620:DE *461:12 3.39728e-05
30 *1628:DE *1404:D 6.46135e-05
31 *1628:DE *1404:DE 0.000337996
32 *1628:DE *869:48 0.000147756
33 *1628:DE *869:52 2.36969e-05
34 *1643:DE *553:14 8.52404e-05
35 *2267:A *1376:B 0.000112367
36 *2268:A *1670:A 4.61271e-05
37 *2268:A *1670:B 0.000707437
38 *127:6 *427:245 0.00016195
39 *127:10 *1680:B1 0.000196792
40 *127:10 *1688:C1 0.000465404
41 *127:10 *1689:D 1.87349e-05
42 *127:10 *1692:CLK 7.0179e-06
43 *127:10 *1692:D 0.000137323
44 *127:10 *828:18 0.000255116
45 *127:10 *828:33 0.000124926
46 *127:10 *828:49 9.85368e-05
47 *127:10 *828:60 0.000179923
48 *127:10 *902:121 4.62564e-05
49 *127:10 *902:132 1.23882e-05
50 *127:20 *1056:A1 7.33021e-06
51 *127:20 *1271:B 5.04829e-06
52 *127:20 *1463:CLK 0
53 *127:20 *424:51 0.000229151
54 *127:20 *884:354 6.27782e-05
55 *127:39 *1591:DE 5.38612e-06
56 *127:39 *2289:A 2.02035e-05
57 *127:39 *128:32 6.00334e-05
58 *127:39 *128:38 0.000637848
59 *127:39 *461:12 3.6455e-05
60 *127:39 *857:353 0.000512411
61 *127:39 *885:135 8.36586e-06
62 *127:39 *885:143 9.32095e-05
63 *127:39 *898:66 8.60326e-05
64 *127:45 *128:44 9.38765e-05
65 *127:45 *419:61 0
66 *127:45 *857:353 0.000504845
67 *127:45 *885:143 0.000377924
68 *127:47 *1599:D 0
69 *127:47 *1631:CLK 0
70 *127:47 *128:44 0.000130949
71 *127:47 *128:46 0.000477273
72 *127:47 *419:61 0
73 *127:47 *857:365 0
74 *127:53 *1404:DE 0
75 *127:53 *1611:DE 0
76 *127:53 *1643:D 0
77 *127:53 *128:46 0.000149008
78 *127:53 *128:56 0.000385323
79 *127:53 *402:14 0.000227524
80 *127:53 *857:365 0
81 *127:53 *857:381 0
82 *127:53 *858:219 0
83 *127:53 *894:294 0.000104784
84 *127:57 *1404:DE 4.41474e-05
85 *127:57 *869:46 1.77537e-06
86 *127:57 *869:48 2.64881e-05
87 *127:114 *1151:A2 0
88 *127:114 *545:16 0.000360318
89 *127:114 *856:8 0.000174034
90 *127:118 *1151:A2 0
91 *127:118 *856:8 0.000169125
92 *127:118 *856:10 0.000377004
93 *127:157 *1670:B 0
94 *127:157 *1685:D 0.00029759
95 *127:157 *1686:C 0.00029759
96 *127:157 *1687:A4 6.27782e-05
97 *127:157 *427:245 0.000154145
98 *908:B *2268:A 0.000235732
99 *910:B *127:157 1.30666e-05
100 *911:B *2268:A 0.000508848
101 *914:B *127:157 0.000304479
102 *944:A *127:6 0.000112361
103 *944:A *127:10 2.86829e-05
104 *944:A *127:157 5.97558e-05
105 *1175:A *127:20 8.82524e-05
106 *1472:DE *127:114 0
107 *1674:B *127:10 0
108 *1675:B *127:10 0
109 *70:20 *127:10 0
110 *70:34 *127:10 0
111 *70:34 *127:20 0
112 *83:13 *2268:A 0.000104966
113 *83:134 *2268:A 4.61271e-05
114 *83:138 *2268:A 0.000158814
115 *83:214 *127:157 0
116 *123:10 *127:20 0
*RES
1 *944:Y *127:6 11.0817 
2 *127:6 *127:10 41.8361 
3 *127:10 *127:20 40.9856 
4 *127:20 *1623:DE 10.9069 
5 *127:20 *127:39 36.0219 
6 *127:39 *127:45 27.7975 
7 *127:45 *127:47 27.1624 
8 *127:47 *127:53 47.4798 
9 *127:53 *127:57 6.332 
10 *127:57 *1628:DE 29.1835 
11 *127:57 *1618:DE 14.153 
12 *127:47 *1643:DE 14.7076 
13 *127:45 *1631:DE 15.4069 
14 *127:39 *1620:DE 14.153 
15 *127:10 *127:114 14.6622 
16 *127:114 *127:118 14.2218 
17 *127:118 *1616:DE 29.6638 
18 *127:118 *2267:A 10.5271 
19 *127:114 *1642:DE 14.8523 
20 *127:6 *127:157 28.0289 
21 *127:157 *2268:A 41.6091 
*END

*D_NET *128 0.0279718
*CONN
*I *2265:A I *D sky130_fd_sc_hd__probec_p_8
*I *1418:DE I *D sky130_fd_sc_hd__edfxtp_1
*I *2264:A I *D sky130_fd_sc_hd__probec_p_8
*I *1399:DE I *D sky130_fd_sc_hd__edfxtp_1
*I *1396:DE I *D sky130_fd_sc_hd__edfxtp_1
*I *1407:DE I *D sky130_fd_sc_hd__edfxtp_1
*I *1419:DE I *D sky130_fd_sc_hd__edfxtp_1
*I *1394:DE I *D sky130_fd_sc_hd__edfxtp_1
*I *1404:DE I *D sky130_fd_sc_hd__edfxtp_1
*I *947:Y O *D sky130_fd_sc_hd__nand2_1
*CAP
1 *2265:A 0.000181552
2 *1418:DE 1.6955e-05
3 *2264:A 0
4 *1399:DE 1.71478e-05
5 *1396:DE 2.43957e-05
6 *1407:DE 1.65908e-05
7 *1419:DE 1.67259e-05
8 *1394:DE 2.04523e-05
9 *1404:DE 0.001331
10 *947:Y 0.000250959
11 *128:56 0.00222814
12 *128:46 0.00184249
13 *128:44 0.00181194
14 *128:38 0.00140472
15 *128:32 0.00301806
16 *128:22 0.00288078
17 *128:20 0.00111005
18 *128:16 0.00111168
19 *1404:DE *1394:CLK 0
20 *1404:DE *1394:D 0.000271948
21 *1404:DE *1404:D 0
22 *1404:DE *869:44 0
23 *1404:DE *869:46 0
24 *1407:DE *884:90 3.44641e-05
25 *1418:DE *1418:D 3.42041e-05
26 *1419:DE *1419:CLK 3.42041e-05
27 *2265:A *943:A 1.12605e-05
28 *2265:A *946:B 3.31882e-05
29 *2265:A *1150:A2 0.000145441
30 *2265:A *857:14 5.2504e-06
31 *2265:A *872:10 0.000340174
32 *2265:A *872:16 6.08467e-05
33 *128:16 *944:B 2.86549e-05
34 *128:16 *856:8 5.39635e-06
35 *128:16 *875:20 5.07314e-05
36 *128:20 *1150:A2 0.000376999
37 *128:20 *1150:S0 0.000729706
38 *128:20 *417:279 6.84302e-05
39 *128:20 *856:8 0
40 *128:20 *857:14 7.88053e-05
41 *128:20 *857:27 6.70294e-05
42 *128:20 *872:10 1.9101e-05
43 *128:20 *875:34 7.77452e-05
44 *128:22 *1418:D 0.000228576
45 *128:22 *1642:CLK 0.000251563
46 *128:22 *856:8 3.87022e-06
47 *128:22 *856:10 4.73013e-05
48 *128:22 *857:27 6.50589e-05
49 *128:22 *887:156 0.000491464
50 *128:32 *1059:A2 0.000188624
51 *128:32 *2289:A 0.000775702
52 *128:32 *856:10 3.87909e-05
53 *128:32 *857:339 0
54 *128:32 *858:12 2.53122e-05
55 *128:32 *860:13 4.51176e-05
56 *128:32 *865:16 0.000130865
57 *128:32 *887:143 0.000109465
58 *128:32 *887:156 0.000239984
59 *128:32 *898:66 2.36809e-05
60 *128:38 *857:353 0.000171966
61 *128:38 *898:66 0.00046378
62 *128:44 *417:138 0.000958528
63 *128:44 *857:353 0.000357182
64 *128:44 *898:66 6.31032e-05
65 *128:46 *1156:A2 0
66 *128:46 *553:14 0
67 *128:56 *1156:A3 0
68 *128:56 *1394:D 8.70662e-06
69 *128:56 *402:14 5.04829e-06
70 *128:56 *427:130 0.000360872
71 *128:56 *857:381 4.80299e-05
72 *128:56 *858:219 0
73 *1031:S0 *1404:DE 0
74 *1616:DE *128:22 0.000226969
75 *1616:DE *128:32 0.00016802
76 *1628:DE *1404:DE 0.000337996
77 *1647:DE *128:16 0.000122378
78 *1671:B *2265:A 0.000179957
79 *2:43 *1399:DE 3.39728e-05
80 *10:56 *128:44 0
81 *10:56 *128:46 0
82 *28:76 *1394:DE 3.39878e-06
83 *70:184 *2265:A 6.08467e-05
84 *127:39 *128:32 6.00334e-05
85 *127:39 *128:38 0.000637848
86 *127:45 *128:44 9.38765e-05
87 *127:47 *128:44 0.000130949
88 *127:47 *128:46 0.000477273
89 *127:53 *1404:DE 0
90 *127:53 *128:46 0.000149008
91 *127:53 *128:56 0.000385323
92 *127:57 *1404:DE 4.41474e-05
*RES
1 *947:Y *128:16 22.6522 
2 *128:16 *128:20 23.1198 
3 *128:20 *128:22 17.6116 
4 *128:22 *128:32 21.0728 
5 *128:32 *128:38 21.0069 
6 *128:38 *128:44 28.7745 
7 *128:44 *128:46 26.7471 
8 *128:46 *128:56 33.3251 
9 *128:56 *1404:DE 49.7207 
10 *128:56 *1394:DE 14.153 
11 *128:46 *1419:DE 14.153 
12 *128:44 *1407:DE 14.153 
13 *128:38 *1396:DE 14.153 
14 *128:32 *1399:DE 14.153 
15 *128:22 *2264:A 13.7491 
16 *128:20 *1418:DE 14.153 
17 *128:16 *2265:A 21.4952 
*END

*D_NET *129 0.00241954
*CONN
*I *1377:D I *D sky130_fd_sc_hd__edfxtp_1
*I *960:X O *D sky130_fd_sc_hd__and2_0
*CAP
1 *1377:D 0.000723025
2 *960:X 0.000723025
3 *1377:D *1106:A0 7.8406e-05
4 *1377:D *1377:CLK 3.81806e-05
5 *1377:D *1505:D 0.000106962
6 *1377:D *423:79 9.5067e-05
7 *1377:D *512:20 0.000148643
8 *1377:D *860:88 0.000272015
9 *1377:D *863:100 0.000192935
10 *1377:D *865:199 4.12833e-05
11 *1377:D *893:23 0
12 *1377:D *893:70 0
*RES
1 *960:X *1377:D 48.942 
*END

*D_NET *130 0.000298465
*CONN
*I *1378:D I *D sky130_fd_sc_hd__edfxtp_1
*I *961:X O *D sky130_fd_sc_hd__and2_0
*CAP
1 *1378:D 0.000140187
2 *961:X 0.000140187
3 *1378:D *889:12 1.2601e-05
4 *1378:D *889:174 5.49079e-06
5 *14:55 *1378:D 0
*RES
1 *961:X *1378:D 30.5345 
*END

*D_NET *131 0.00187045
*CONN
*I *1379:D I *D sky130_fd_sc_hd__edfxtp_1
*I *962:X O *D sky130_fd_sc_hd__and2_0
*CAP
1 *1379:D 0.000444288
2 *962:X 0.000444288
3 *1379:D *1379:DE 3.14375e-05
4 *1379:D *858:18 0
5 *1379:D *865:346 0.000267909
6 *1379:D *867:16 5.34249e-06
7 *1379:D *875:85 0.000472721
8 *962:A *1379:D 2.58616e-05
9 *1283:A *1379:D 3.99086e-06
10 *15:82 *1379:D 0.000174612
*RES
1 *962:X *1379:D 41.3633 
*END

*D_NET *132 0.000862587
*CONN
*I *1380:D I *D sky130_fd_sc_hd__edfxtp_1
*I *963:X O *D sky130_fd_sc_hd__and2_0
*CAP
1 *1380:D 0.000280604
2 *963:X 0.000280604
3 *1380:D *1508:CLK 8.10514e-06
4 *16:15 *1380:D 0.000192472
5 *16:30 *1380:D 3.80222e-05
6 *16:36 *1380:D 6.27782e-05
*RES
1 *963:X *1380:D 34.58 
*END

*D_NET *133 0.00219912
*CONN
*I *1381:D I *D sky130_fd_sc_hd__edfxtp_1
*I *964:X O *D sky130_fd_sc_hd__and2_0
*CAP
1 *1381:D 0.000620525
2 *964:X 0.000620525
3 *1381:D *1381:CLK 1.41976e-05
4 *1381:D *1381:DE 3.39878e-06
5 *1381:D *858:431 0.000155754
6 *1381:D *876:125 0.000116215
7 *1381:D *881:57 0.000305926
8 *1381:D *881:63 0.000144659
9 *17:33 *1381:D 0.000217923
*RES
1 *964:X *1381:D 44.6618 
*END

*D_NET *134 0.000385731
*CONN
*I *1382:D I *D sky130_fd_sc_hd__edfxtp_1
*I *965:X O *D sky130_fd_sc_hd__and2_0
*CAP
1 *1382:D 0.000101026
2 *965:X 0.000101026
3 *1382:D *1382:CLK 5.48187e-06
4 *1382:D *858:364 3.15447e-05
5 *18:21 *1382:D 0.000146652
*RES
1 *965:X *1382:D 30.5345 
*END

*D_NET *135 0.00168905
*CONN
*I *1383:D I *D sky130_fd_sc_hd__edfxtp_1
*I *966:X O *D sky130_fd_sc_hd__and2_0
*CAP
1 *1383:D 0.000376454
2 *966:X 0.000376454
3 *1383:D *1383:CLK 4.81696e-05
4 *1383:D *1383:DE 8.18316e-05
5 *1383:D *1511:D 0.000160135
6 *1383:D *878:148 0.000488895
7 *966:A *1383:D 6.27782e-05
8 *19:21 *1383:D 9.43286e-05
*RES
1 *966:X *1383:D 39.0112 
*END

*D_NET *136 0.00145196
*CONN
*I *1384:D I *D sky130_fd_sc_hd__edfxtp_1
*I *967:X O *D sky130_fd_sc_hd__and2_0
*CAP
1 *1384:D 0.000612699
2 *967:X 0.000612699
3 *1384:D *1192:B 5.34249e-06
4 *1384:D *1480:D 8.55233e-05
5 *1384:D *1512:D 2.04654e-05
6 *1384:D *1512:DE 2.66359e-05
7 *1384:D *1576:DE 1.66771e-05
8 *1384:D *423:211 7.19142e-05
9 *1384:D *892:161 0
*RES
1 *967:X *1384:D 38.465 
*END

*D_NET *137 0.000495613
*CONN
*I *1385:D I *D sky130_fd_sc_hd__edfxtp_1
*I *968:X O *D sky130_fd_sc_hd__and2_0
*CAP
1 *1385:D 0.000147984
2 *968:X 0.000147984
3 *1385:D *1017:A1 0
4 *1385:D *880:326 1.27046e-05
5 *1385:D *887:258 3.20108e-05
6 *1385:D *887:340 7.50872e-05
7 *968:A *1385:D 6.50727e-05
8 *1193:A *1385:D 1.47712e-05
*RES
1 *968:X *1385:D 31.2579 
*END

*D_NET *138 0.0017418
*CONN
*I *1386:D I *D sky130_fd_sc_hd__edfxtp_1
*I *969:X O *D sky130_fd_sc_hd__and2_0
*CAP
1 *1386:D 0.00045051
2 *969:X 0.00045051
3 *1386:D *1290:C 0.000103708
4 *1386:D *1386:CLK 5.34249e-06
5 *1386:D *418:20 0.000290516
6 *1386:D *421:51 0
7 *1386:D *422:16 0.000171552
8 *1386:D *423:14 9.36125e-05
9 *1194:A *1386:D 6.46815e-05
10 *22:31 *1386:D 0.000111362
*RES
1 *969:X *1386:D 41.224 
*END

*D_NET *139 0.00088831
*CONN
*I *1387:D I *D sky130_fd_sc_hd__edfxtp_1
*I *970:X O *D sky130_fd_sc_hd__and2_0
*CAP
1 *1387:D 0.000338679
2 *970:X 0.000338679
3 *1387:D *1419:CLK 0
4 *1387:D *423:79 7.33369e-05
5 *1387:D *858:219 3.14375e-05
6 *70:63 *1387:D 0.000106178
*RES
1 *970:X *1387:D 33.6157 
*END

*D_NET *140 0.00109763
*CONN
*I *1388:D I *D sky130_fd_sc_hd__edfxtp_1
*I *971:X O *D sky130_fd_sc_hd__and2_0
*CAP
1 *1388:D 0.000198329
2 *971:X 0.000198329
3 *1388:D *1388:CLK 3.73045e-05
4 *1388:D *1388:DE 8.11133e-05
5 *1388:D *1580:CLK 0.000117067
6 *1388:D *858:443 0.000332202
7 *1388:D *889:29 6.28484e-05
8 *1388:D *889:57 7.04342e-05
*RES
1 *971:X *1388:D 35.5927 
*END

*D_NET *141 0.0020192
*CONN
*I *1389:D I *D sky130_fd_sc_hd__edfxtp_1
*I *972:X O *D sky130_fd_sc_hd__and3_1
*CAP
1 *1389:D 0.000341954
2 *972:X 0.000341954
3 *1389:D *1389:CLK 0.000479276
4 *1389:D *1613:CLK 0
5 *1389:D *866:84 7.50872e-05
6 *1389:D *877:283 0.000477042
7 *1389:D *880:221 3.92774e-05
8 *1389:D *891:225 0.000264612
*RES
1 *972:X *1389:D 39.9628 
*END

*D_NET *142 0.000779286
*CONN
*I *1390:D I *D sky130_fd_sc_hd__edfxtp_1
*I *973:X O *D sky130_fd_sc_hd__and3_1
*CAP
1 *1390:D 0.00019492
2 *973:X 0.00019492
3 *1390:D *973:C 3.13805e-06
4 *1390:D *1390:CLK 0.000216467
5 *1390:D *875:274 0.000169842
*RES
1 *973:X *1390:D 23.9479 
*END

*D_NET *143 0.00127865
*CONN
*I *1391:D I *D sky130_fd_sc_hd__edfxtp_1
*I *974:X O *D sky130_fd_sc_hd__and3_1
*CAP
1 *1391:D 0.000289901
2 *974:X 0.000289901
3 *1391:D *1016:A3 3.10982e-05
4 *1391:D *1016:S0 0
5 *1391:D *1391:DE 3.15447e-05
6 *1391:D *1583:D 0.000367843
7 *1391:D *861:13 1.29211e-05
8 *1583:DE *1391:D 6.70069e-05
9 *69:461 *1391:D 0.000188436
*RES
1 *974:X *1391:D 37.1786 
*END

*D_NET *144 0.000689061
*CONN
*I *1392:D I *D sky130_fd_sc_hd__edfxtp_1
*I *975:X O *D sky130_fd_sc_hd__and3_1
*CAP
1 *1392:D 0.00019082
2 *975:X 0.00019082
3 *1392:D *975:B 4.94835e-05
4 *1392:D *1392:CLK 4.15418e-05
5 *1392:D *421:75 0.000216396
*RES
1 *975:X *1392:D 24.2975 
*END

*D_NET *145 0.00133693
*CONN
*I *1393:D I *D sky130_fd_sc_hd__edfxtp_1
*I *976:X O *D sky130_fd_sc_hd__and3_1
*CAP
1 *1393:D 0.000435246
2 *976:X 0.000435246
3 *1393:D *976:B 2.82097e-05
4 *1393:D *1393:CLK 0.000337369
5 *1393:D *861:65 0.000100856
*RES
1 *976:X *1393:D 29.6627 
*END

*D_NET *146 0.00077795
*CONN
*I *1394:D I *D sky130_fd_sc_hd__edfxtp_1
*I *977:X O *D sky130_fd_sc_hd__and3_1
*CAP
1 *1394:D 0.000134087
2 *977:X 0.000134087
3 *1394:D *1394:CLK 3.21568e-05
4 *1394:D *857:381 0.000191474
5 *1404:DE *1394:D 0.000271948
6 *28:76 *1394:D 5.49029e-06
7 *128:56 *1394:D 8.70662e-06
*RES
1 *977:X *1394:D 33.4413 
*END

*D_NET *147 0.000955536
*CONN
*I *1395:D I *D sky130_fd_sc_hd__edfxtp_1
*I *978:X O *D sky130_fd_sc_hd__and3_1
*CAP
1 *1395:D 0.000342287
2 *978:X 0.000342287
3 *1395:D *978:C 0
4 *1395:D *1036:A3 0.000114594
5 *1395:D *1587:DE 8.62625e-06
6 *1395:D *859:39 9.4078e-05
7 *1395:D *868:109 5.36642e-05
*RES
1 *978:X *1395:D 36.4235 
*END

*D_NET *148 0.000729356
*CONN
*I *1396:D I *D sky130_fd_sc_hd__edfxtp_1
*I *979:X O *D sky130_fd_sc_hd__and3_1
*CAP
1 *1396:D 0.000211745
2 *979:X 0.000211745
3 *1396:D *1588:CLK 0.000267404
4 *1396:D *885:143 3.84612e-05
*RES
1 *979:X *1396:D 24.6351 
*END

*D_NET *149 0.00142037
*CONN
*I *1397:D I *D sky130_fd_sc_hd__edfxtp_1
*I *980:X O *D sky130_fd_sc_hd__and3_1
*CAP
1 *1397:D 0.000380227
2 *980:X 0.000380227
3 *1397:D *1397:CLK 4.58003e-05
4 *1397:D *1589:CLK 0.0001549
5 *125:93 *1397:D 0.000367283
6 *125:97 *1397:D 5.21927e-05
7 *126:89 *1397:D 3.9739e-05
*RES
1 *980:X *1397:D 39.736 
*END

*D_NET *150 0.00136406
*CONN
*I *1398:D I *D sky130_fd_sc_hd__edfxtp_1
*I *981:X O *D sky130_fd_sc_hd__and3_1
*CAP
1 *1398:D 0.000244066
2 *981:X 0.000244066
3 *1398:D *981:C 8.92568e-06
4 *1398:D *1050:S1 0.00016345
5 *1398:D *1398:DE 0.000520483
6 *1398:D *880:189 0.000133276
7 *1398:D *881:259 4.97938e-05
*RES
1 *981:X *1398:D 37.9449 
*END

*D_NET *151 0.000659168
*CONN
*I *1399:D I *D sky130_fd_sc_hd__edfxtp_1
*I *982:X O *D sky130_fd_sc_hd__and3_1
*CAP
1 *1399:D 0.000193463
2 *982:X 0.000193463
3 *2:43 *1399:D 0.000272242
*RES
1 *982:X *1399:D 23.9479 
*END

*D_NET *152 0.00065541
*CONN
*I *1400:D I *D sky130_fd_sc_hd__edfxtp_1
*I *983:X O *D sky130_fd_sc_hd__and3_1
*CAP
1 *1400:D 0.000232671
2 *983:X 0.000232671
3 *1400:D *983:B 1.03403e-05
4 *1400:D *983:C 1.41976e-05
5 *1400:D *1400:CLK 0.00016553
*RES
1 *983:X *1400:D 24.2975 
*END

*D_NET *153 0.00147114
*CONN
*I *1401:D I *D sky130_fd_sc_hd__edfxtp_1
*I *984:X O *D sky130_fd_sc_hd__and3_1
*CAP
1 *1401:D 0.000505588
2 *984:X 0.000505588
3 *1401:D *984:C 9.88697e-05
4 *1401:D *1066:A1 0
5 *1401:D *1066:A2 0.000186751
6 *1401:D *856:333 4.3116e-06
7 *1401:D *860:58 0.000108189
8 *1401:D *860:70 6.18435e-05
*RES
1 *984:X *1401:D 40.8951 
*END

*D_NET *154 0.00164496
*CONN
*I *1402:D I *D sky130_fd_sc_hd__edfxtp_1
*I *985:X O *D sky130_fd_sc_hd__and3_1
*CAP
1 *1402:D 0.000764837
2 *985:X 0.000764837
3 *1402:D *1405:DE 5.91107e-05
4 *1402:D *864:79 0
5 *1402:D *864:92 5.19205e-05
6 *1402:D *878:197 4.25622e-06
7 *1597:DE *1402:D 0
*RES
1 *985:X *1402:D 41.2352 
*END

*D_NET *155 0.000906739
*CONN
*I *1403:D I *D sky130_fd_sc_hd__edfxtp_1
*I *986:X O *D sky130_fd_sc_hd__and3_1
*CAP
1 *1403:D 0.000357387
2 *986:X 0.000357387
3 *1403:D *882:320 0.000149181
4 *1403:D *891:254 4.11892e-05
5 *1403:D *891:265 1.59362e-06
*RES
1 *986:X *1403:D 34.5856 
*END

*D_NET *156 0.00123736
*CONN
*I *1404:D I *D sky130_fd_sc_hd__edfxtp_1
*I *987:X O *D sky130_fd_sc_hd__and3_1
*CAP
1 *1404:D 0.000322473
2 *987:X 0.000322473
3 *1404:D *869:52 0.000527806
4 *1404:DE *1404:D 0
5 *1628:DE *1404:D 6.46135e-05
*RES
1 *987:X *1404:D 37.902 
*END

*D_NET *157 0.000836054
*CONN
*I *1405:D I *D sky130_fd_sc_hd__edfxtp_1
*I *988:X O *D sky130_fd_sc_hd__and3_1
*CAP
1 *1405:D 0.000286851
2 *988:X 0.000286851
3 *1405:D *1341:C 2.61973e-05
4 *1405:D *1405:CLK 4.89392e-05
5 *1405:D *427:512 8.95297e-05
6 *1597:DE *1405:D 9.76858e-05
*RES
1 *988:X *1405:D 34.7558 
*END

*D_NET *158 0.0021066
*CONN
*I *1406:D I *D sky130_fd_sc_hd__edfxtp_1
*I *989:X O *D sky130_fd_sc_hd__and3_1
*CAP
1 *1406:D 0.000634462
2 *989:X 0.000634462
3 *1406:D *1090:S0 0.000150716
4 *1406:D *877:262 0.000681474
5 *1406:D *880:207 5.49029e-06
6 *1406:D *881:187 0
*RES
1 *989:X *1406:D 41.2352 
*END

*D_NET *159 0.000820704
*CONN
*I *1407:D I *D sky130_fd_sc_hd__edfxtp_1
*I *990:X O *D sky130_fd_sc_hd__and3_1
*CAP
1 *1407:D 0.000191109
2 *990:X 0.000191109
3 *1407:D *884:90 0.000173185
4 *1407:D *884:92 0.000200228
5 *1407:D *884:98 6.50727e-05
6 *990:A *1407:D 0
*RES
1 *990:X *1407:D 23.9479 
*END

*D_NET *160 0.000789214
*CONN
*I *1408:D I *D sky130_fd_sc_hd__edfxtp_1
*I *991:X O *D sky130_fd_sc_hd__and3_1
*CAP
1 *1408:D 0.000215896
2 *991:X 0.000215896
3 *1408:D *1344:B 7.92757e-06
4 *1408:D *1408:CLK 0.000203756
5 *1408:D *1408:DE 0.000138955
6 *1408:D *879:77 6.78364e-06
7 *991:A *1408:D 0
*RES
1 *991:X *1408:D 23.9479 
*END

*D_NET *161 0.00149466
*CONN
*I *1409:D I *D sky130_fd_sc_hd__edfxtp_1
*I *992:X O *D sky130_fd_sc_hd__and3_1
*CAP
1 *1409:D 0.000478573
2 *992:X 0.000478573
3 *1409:D *1106:A2 0.000178204
4 *1409:D *1106:A3 1.91516e-05
5 *1409:D *860:103 0
6 *1409:D *877:54 0.000142644
7 *1409:D *877:71 0.000192027
8 *1409:D *893:70 5.49079e-06
*RES
1 *992:X *1409:D 42.1616 
*END

*D_NET *162 0.00254541
*CONN
*I *1410:D I *D sky130_fd_sc_hd__edfxtp_1
*I *993:X O *D sky130_fd_sc_hd__and3_1
*CAP
1 *1410:D 0.000842907
2 *993:X 0.000842907
3 *1410:D *993:C 2.41274e-06
4 *1410:D *1110:S0 0.000167906
5 *1410:D *1410:CLK 0.00011818
6 *1410:D *1602:D 0.000177918
7 *1410:D *427:456 6.65668e-05
8 *1410:D *870:98 0
9 *1410:D *880:425 0.000326613
*RES
1 *993:X *1410:D 47.4638 
*END

*D_NET *163 0.00154739
*CONN
*I *1411:D I *D sky130_fd_sc_hd__edfxtp_1
*I *994:X O *D sky130_fd_sc_hd__and3_1
*CAP
1 *1411:D 0.000477071
2 *994:X 0.000477071
3 *1411:D *2266:A 0.00014256
4 *1411:D *877:170 0.000450693
5 *1411:D *895:27 0
*RES
1 *994:X *1411:D 36.804 
*END

*D_NET *164 0.00139772
*CONN
*I *1412:D I *D sky130_fd_sc_hd__edfxtp_1
*I *995:X O *D sky130_fd_sc_hd__and3_1
*CAP
1 *1412:D 0.000215262
2 *995:X 0.000215262
3 *1412:D *1412:CLK 2.19973e-05
4 *1412:D *418:142 0.000470871
5 *1412:D *868:71 0.000474332
*RES
1 *995:X *1412:D 37.5176 
*END

*D_NET *165 0.000796005
*CONN
*I *1413:D I *D sky130_fd_sc_hd__edfxtp_1
*I *996:X O *D sky130_fd_sc_hd__and3_1
*CAP
1 *1413:D 0.000232671
2 *996:X 0.000232671
3 *1413:D *996:C 0.000145892
4 *1413:D *1349:C 2.57314e-06
5 *1413:D *1413:DE 0.000135597
6 *1413:D *879:143 2.85531e-06
7 *1413:D *889:72 3.48206e-05
8 *1413:D *889:87 8.92568e-06
*RES
1 *996:X *1413:D 33.1455 
*END

*D_NET *166 0.00179874
*CONN
*I *1414:D I *D sky130_fd_sc_hd__edfxtp_1
*I *997:X O *D sky130_fd_sc_hd__and3_1
*CAP
1 *1414:D 0.000568226
2 *997:X 0.000568226
3 *1414:D *1131:A2 2.1558e-06
4 *1414:D *1131:A3 0
5 *1414:D *1146:S0 0.000196815
6 *1414:D *1254:B 0.000205025
7 *1414:D *417:489 5.49079e-06
8 *1414:D *861:44 0.000192071
9 *1414:D *861:65 5.33358e-06
10 *1414:D *872:123 5.53934e-05
11 *1414:D *888:163 0
*RES
1 *997:X *1414:D 44.3111 
*END

*D_NET *167 0.00261453
*CONN
*I *1415:D I *D sky130_fd_sc_hd__edfxtp_1
*I *998:X O *D sky130_fd_sc_hd__and3_1
*CAP
1 *1415:D 0.000914461
2 *998:X 0.000914461
3 *1415:D *1543:CLK 0.0001073
4 *1415:D *417:477 0.000256307
5 *1415:D *870:56 0.000223644
6 *1415:D *888:86 0
7 *1415:D *888:99 0
8 *125:93 *1415:D 0.000198362
*RES
1 *998:X *1415:D 46.0845 
*END

*D_NET *168 0.000396014
*CONN
*I *1416:D I *D sky130_fd_sc_hd__edfxtp_1
*I *999:X O *D sky130_fd_sc_hd__and3_1
*CAP
1 *1416:D 0.000104117
2 *999:X 0.000104117
3 *1416:D *859:50 3.33625e-05
4 *1416:D *867:141 0.00012136
5 *999:A *1416:D 3.30578e-05
*RES
1 *999:X *1416:D 30.8521 
*END

*D_NET *169 0.0023575
*CONN
*I *1417:D I *D sky130_fd_sc_hd__edfxtp_1
*I *1000:X O *D sky130_fd_sc_hd__and3_1
*CAP
1 *1417:D 0.000698622
2 *1000:X 0.000698622
3 *1417:D *1000:B 0.00086475
4 *1417:D *1000:C 0
5 *1417:D *1417:DE 8.50354e-05
6 *1417:D *872:153 0
7 *1417:D *878:57 0
8 *1609:DE *1417:D 0
9 *125:54 *1417:D 1.04748e-05
*RES
1 *1000:X *1417:D 47.868 
*END

*D_NET *170 0.00143881
*CONN
*I *1418:D I *D sky130_fd_sc_hd__edfxtp_1
*I *1001:X O *D sky130_fd_sc_hd__and3_1
*CAP
1 *1418:D 0.000317049
2 *1001:X 0.000317049
3 *1418:D *856:8 0.000368012
4 *1418:D *856:10 0.000173916
5 *1418:DE *1418:D 3.42041e-05
6 *128:22 *1418:D 0.000228576
*RES
1 *1001:X *1418:D 39.33 
*END

*D_NET *171 0.000671718
*CONN
*I *1419:D I *D sky130_fd_sc_hd__edfxtp_1
*I *1002:X O *D sky130_fd_sc_hd__and3_1
*CAP
1 *1419:D 0.000240538
2 *1002:X 0.000240538
3 *1419:D *1419:CLK 0.000188229
4 *1419:D *1611:D 2.41274e-06
5 *1002:A *1419:D 0
*RES
1 *1002:X *1419:D 23.9479 
*END

*D_NET *172 0.00082282
*CONN
*I *1420:D I *D sky130_fd_sc_hd__edfxtp_1
*I *1003:X O *D sky130_fd_sc_hd__and3_1
*CAP
1 *1420:D 0.000180389
2 *1003:X 0.000180389
3 *1420:D *1161:A2 0.000151494
4 *1420:D *860:58 0.000167564
5 *1420:D *879:81 0.000142984
*RES
1 *1003:X *1420:D 34.5894 
*END

*D_NET *173 0.00123301
*CONN
*I *1421:D I *D sky130_fd_sc_hd__dfxtp_1
*I *1009:Y O *D sky130_fd_sc_hd__a21oi_1
*CAP
1 *1421:D 0.000365882
2 *1009:Y 0.000365882
3 *1421:D *458:12 0.000285517
4 *1083:A1 *1421:D 0
5 *1083:B1 *1421:D 1.07248e-05
6 *33:10 *1421:D 0.000205006
*RES
1 *1009:Y *1421:D 37.3122 
*END

*D_NET *174 0.00182026
*CONN
*I *1422:D I *D sky130_fd_sc_hd__dfxtp_1
*I *1014:Y O *D sky130_fd_sc_hd__a21oi_1
*CAP
1 *1422:D 0.000323948
2 *1014:Y 0.000323948
3 *1422:D *1014:B1 0.00117237
*RES
1 *1014:Y *1422:D 31.9113 
*END

*D_NET *175 0.00145565
*CONN
*I *1423:D I *D sky130_fd_sc_hd__dfxtp_1
*I *1019:Y O *D sky130_fd_sc_hd__a21oi_1
*CAP
1 *1423:D 0.000310937
2 *1019:Y 0.000310937
3 *1423:D *1024:B1 0
4 *1423:D *430:10 3.31736e-05
5 *55:10 *1423:D 0.000117715
6 *72:13 *1423:D 0.000682884
*RES
1 *1019:Y *1423:D 38.7029 
*END

*D_NET *176 0.00114958
*CONN
*I *1424:D I *D sky130_fd_sc_hd__dfxtp_1
*I *1024:Y O *D sky130_fd_sc_hd__a21oi_1
*CAP
1 *1424:D 0.00044019
2 *1024:Y 0.00044019
3 *1424:D *1024:B1 0
4 *1424:D *430:18 3.1762e-05
5 data_out[2] *1424:D 6.85852e-05
6 *55:10 *1424:D 2.1667e-05
7 *58:8 *1424:D 0.000147183
*RES
1 *1024:Y *1424:D 39.2575 
*END

*D_NET *177 0.00140703
*CONN
*I *1425:D I *D sky130_fd_sc_hd__dfxtp_1
*I *1029:Y O *D sky130_fd_sc_hd__a21oi_1
*CAP
1 *1425:D 0.000435013
2 *1029:Y 0.000435013
3 *1425:D *1029:B1 3.79204e-05
4 *1425:D *1446:D 0.000195139
5 data_out[4] *1425:D 3.31733e-05
6 *1028:A1 *1425:D 0.000123582
7 *59:8 *1425:D 1.87611e-05
8 *81:13 *1425:D 5.2504e-06
9 *81:410 *1425:D 0.000123176
*RES
1 *1029:Y *1425:D 37.481 
*END

*D_NET *178 0.00107822
*CONN
*I *1426:D I *D sky130_fd_sc_hd__dfxtp_1
*I *1034:Y O *D sky130_fd_sc_hd__a21oi_1
*CAP
1 *1426:D 0.000272829
2 *1034:Y 0.000272829
3 *1426:D *1034:A1 9.60216e-05
4 *1426:D *1034:A2 3.93117e-06
5 *1426:D *430:617 0
6 *1033:A1 *1426:D 0
7 *60:8 *1426:D 0.000432613
*RES
1 *1034:Y *1426:D 36.2058 
*END

*D_NET *179 0.00123775
*CONN
*I *1427:D I *D sky130_fd_sc_hd__dfxtp_1
*I *1039:Y O *D sky130_fd_sc_hd__a21oi_1
*CAP
1 *1427:D 0.000418117
2 *1039:Y 0.000418117
3 *1427:D *1124:B1 0.000221185
4 *1427:D *430:683 0
5 *1427:D *457:16 0
6 *1427:D *458:12 6.14128e-05
7 *1427:D *494:14 6.36773e-05
8 *61:10 *1427:D 5.52427e-05
*RES
1 *1039:Y *1427:D 39.4179 
*END

*D_NET *180 0.00214669
*CONN
*I *1428:D I *D sky130_fd_sc_hd__dfxtp_1
*I *1044:Y O *D sky130_fd_sc_hd__a21oi_1
*CAP
1 *1428:D 0.000750904
2 *1044:Y 0.000750904
3 *1428:D *1044:B1 0.000133667
4 *1428:D *1164:B1 0.000476898
5 *1428:D *430:32 2.01874e-05
6 *62:8 *1428:D 1.41291e-05
*RES
1 *1044:Y *1428:D 45.2454 
*END

*D_NET *181 0.00103385
*CONN
*I *1429:D I *D sky130_fd_sc_hd__dfxtp_1
*I *1049:Y O *D sky130_fd_sc_hd__a21oi_1
*CAP
1 *1429:D 0.000326043
2 *1049:Y 0.000326043
3 *1429:D *1049:B1 3.39895e-05
4 *1429:D *1053:A2 7.34948e-06
5 *1053:A1 *1429:D 0.000151726
6 *1053:B1 *1429:D 2.65831e-05
7 *24:17 *1429:D 1.43983e-05
8 *63:8 *1429:D 3.18826e-06
9 *81:144 *1429:D 0.000144531
*RES
1 *1049:Y *1429:D 34.4349 
*END

*D_NET *182 0.00264553
*CONN
*I *1430:D I *D sky130_fd_sc_hd__dfxtp_1
*I *1054:Y O *D sky130_fd_sc_hd__a21oi_1
*CAP
1 *1430:D 0.000601094
2 *1054:Y 0.000601094
3 *1430:D *1451:D 0.000157974
4 *1430:D *1547:CLK 0.000169347
5 *1430:D *430:396 0.000168336
6 *1430:D *430:398 2.47663e-05
7 *1430:D *430:400 5.10931e-05
8 *1430:D *856:42 0.000286463
9 *64:8 *1430:D 0.000585366
*RES
1 *1054:Y *1430:D 49.5051 
*END

*D_NET *183 0.000487595
*CONN
*I *1431:D I *D sky130_fd_sc_hd__dfxtp_1
*I *1059:Y O *D sky130_fd_sc_hd__a21oi_1
*CAP
1 *1431:D 0.000155088
2 *1059:Y 0.000155088
3 *1431:D *1059:A2 3.11933e-06
4 *1431:D *1059:B1 5.25994e-05
5 *1431:D *901:20 5.14461e-05
6 data_out[3] *1431:D 0
7 *34:8 *1431:D 7.02539e-05
*RES
1 *1059:Y *1431:D 31.7689 
*END

*D_NET *184 0.000521486
*CONN
*I *1432:D I *D sky130_fd_sc_hd__dfxtp_1
*I *1064:Y O *D sky130_fd_sc_hd__a21oi_1
*CAP
1 *1432:D 0.000183454
2 *1064:Y 0.000183454
3 *1432:D *1034:A1 0
4 *1432:D *477:18 1.70638e-05
5 *1432:D *899:35 1.41531e-05
6 *35:8 *1432:D 0.000123361
7 *81:165 *1432:D 0
8 *81:171 *1432:D 0
*RES
1 *1064:Y *1432:D 32.3236 
*END

*D_NET *185 0.00164203
*CONN
*I *1433:D I *D sky130_fd_sc_hd__dfxtp_1
*I *1069:Y O *D sky130_fd_sc_hd__a21oi_1
*CAP
1 *1433:D 0.000554029
2 *1069:Y 0.000554029
3 *1433:D *1069:A2 0.000103571
4 *1433:D *430:371 2.39535e-05
5 *1433:D *430:377 4.70005e-05
6 *1433:D *898:25 0
7 *1068:A1 *1433:D 0
8 *36:10 *1433:D 0.000326259
9 *81:110 *1433:D 3.31882e-05
*RES
1 *1069:Y *1433:D 42.2952 
*END

*D_NET *186 0.00167326
*CONN
*I *1434:D I *D sky130_fd_sc_hd__dfxtp_1
*I *1074:Y O *D sky130_fd_sc_hd__a21oi_1
*CAP
1 *1434:D 0.000550125
2 *1074:Y 0.000550125
3 *1434:D *1099:A1 9.34396e-06
4 *1434:D *1119:B1 0.000108483
5 *1434:D *1443:D 0
6 *1434:D *856:30 0.000192711
7 *37:10 *1434:D 0.00026247
*RES
1 *1074:Y *1434:D 44.7951 
*END

*D_NET *187 0.0021352
*CONN
*I *1435:D I *D sky130_fd_sc_hd__dfxtp_1
*I *1079:Y O *D sky130_fd_sc_hd__a21oi_1
*CAP
1 *1435:D 0.000646791
2 *1079:Y 0.000646791
3 *1435:D *1034:A1 0.000104691
4 *1435:D *1079:A2 7.18816e-06
5 *1435:D *1435:CLK 4.05756e-05
6 *1435:D *490:18 0.000468418
7 *1435:D *856:42 0
8 *1435:D *899:14 0.00020979
9 *1435:D *899:27 1.09551e-05
10 *1435:D *899:35 0
*RES
1 *1079:Y *1435:D 43.7367 
*END

*D_NET *188 0.00145096
*CONN
*I *1436:D I *D sky130_fd_sc_hd__dfxtp_1
*I *1084:Y O *D sky130_fd_sc_hd__a21oi_1
*CAP
1 *1436:D 0.000307143
2 *1084:Y 0.000307143
3 *1436:D *1427:CLK 6.58661e-05
4 *1436:D *430:683 0.000655205
5 *1436:D *899:49 3.35948e-05
6 *1436:D *899:51 6.32486e-05
7 data_out[15] *1436:D 1.87611e-05
8 *61:10 *1436:D 0
*RES
1 *1084:Y *1436:D 39.5194 
*END

*D_NET *189 0.00118526
*CONN
*I *1437:D I *D sky130_fd_sc_hd__dfxtp_1
*I *1089:Y O *D sky130_fd_sc_hd__a21oi_1
*CAP
1 *1437:D 0.000505424
2 *1089:Y 0.000505424
3 *40:8 *1437:D 0.000174412
*RES
1 *1089:Y *1437:D 31.9113 
*END

*D_NET *190 0.000793154
*CONN
*I *1438:D I *D sky130_fd_sc_hd__dfxtp_1
*I *1094:Y O *D sky130_fd_sc_hd__a21oi_1
*CAP
1 *1438:D 0.0003312
2 *1094:Y 0.0003312
3 *1438:D *1094:A1 4.27003e-05
4 *1438:D *1094:A2 1.82696e-05
5 *1438:D *430:667 0
6 *41:10 *1438:D 6.97852e-05
7 *81:177 *1438:D 0
*RES
1 *1094:Y *1438:D 35.6512 
*END

*D_NET *191 0.00120654
*CONN
*I *1439:D I *D sky130_fd_sc_hd__dfxtp_1
*I *1099:Y O *D sky130_fd_sc_hd__a21oi_1
*CAP
1 *1439:D 0.000554408
2 *1099:Y 0.000554408
3 *1439:D *430:358 4.87439e-05
4 *1439:D *430:371 2.1203e-06
5 *1098:A1 *1439:D 0
6 *1098:B1 *1439:D 4.20184e-06
7 *42:10 *1439:D 4.26566e-05
8 *81:104 *1439:D 0
*RES
1 *1099:Y *1439:D 39.7022 
*END

*D_NET *192 0.00124636
*CONN
*I *1440:D I *D sky130_fd_sc_hd__dfxtp_1
*I *1104:Y O *D sky130_fd_sc_hd__a21oi_1
*CAP
1 *1440:D 0.000343166
2 *1104:Y 0.000343166
3 *1440:D *1104:B1 0.000415258
4 *43:10 *1440:D 0.000144769
*RES
1 *1104:Y *1440:D 29.4758 
*END

*D_NET *193 0.00125333
*CONN
*I *1441:D I *D sky130_fd_sc_hd__dfxtp_1
*I *1109:Y O *D sky130_fd_sc_hd__a21oi_1
*CAP
1 *1441:D 0.000350753
2 *1109:Y 0.000350753
3 *1441:D *1109:B1 0.000551829
*RES
1 *1109:Y *1441:D 29.307 
*END

*D_NET *194 0.00116452
*CONN
*I *1442:D I *D sky130_fd_sc_hd__dfxtp_1
*I *1114:Y O *D sky130_fd_sc_hd__a21oi_1
*CAP
1 *1442:D 0.000503264
2 *1114:Y 0.000503264
3 *1442:D *1069:A2 0
4 *1442:D *1535:D 0
5 *46:10 *1442:D 0.000157992
*RES
1 *1114:Y *1442:D 39.8121 
*END

*D_NET *195 0.00118153
*CONN
*I *1443:D I *D sky130_fd_sc_hd__dfxtp_1
*I *1119:Y O *D sky130_fd_sc_hd__a21oi_1
*CAP
1 *1443:D 0.000447795
2 *1119:Y 0.000447795
3 *1443:D *1119:B1 0.000122083
4 *1443:D *430:61 4.87439e-05
5 *1443:D *521:22 0
6 *1073:A1 *1443:D 0
7 *1434:D *1443:D 0
8 *47:8 *1443:D 0.000115114
*RES
1 *1119:Y *1443:D 39.1476 
*END

*D_NET *196 0.00110891
*CONN
*I *1444:D I *D sky130_fd_sc_hd__dfxtp_1
*I *1124:Y O *D sky130_fd_sc_hd__a21oi_1
*CAP
1 *1444:D 0.000398757
2 *1124:Y 0.000398757
3 *1444:D *458:12 0.000294226
4 *48:10 *1444:D 1.71673e-05
*RES
1 *1124:Y *1444:D 37.3122 
*END

*D_NET *197 0.000856271
*CONN
*I *1445:D I *D sky130_fd_sc_hd__dfxtp_1
*I *1129:Y O *D sky130_fd_sc_hd__a21oi_1
*CAP
1 *1445:D 0.000330325
2 *1129:Y 0.000330325
3 *1128:A1 *1445:D 0
4 *49:8 *1445:D 0.000195621
*RES
1 *1129:Y *1445:D 37.0391 
*END

*D_NET *198 0.00155832
*CONN
*I *1446:D I *D sky130_fd_sc_hd__dfxtp_1
*I *1134:Y O *D sky130_fd_sc_hd__a21oi_1
*CAP
1 *1446:D 0.000541024
2 *1134:Y 0.000541024
3 *1446:D *1028:A2 0.000156384
4 *1446:D *1425:CLK 0
5 *1446:D *901:132 0
6 data_out[4] *1446:D 9.31773e-05
7 *1425:D *1446:D 0.000195139
8 *81:13 *1446:D 9.22013e-06
9 *81:19 *1446:D 2.23472e-05
*RES
1 *1134:Y *1446:D 42.464 
*END

*D_NET *199 0.00112046
*CONN
*I *1447:D I *D sky130_fd_sc_hd__dfxtp_1
*I *1139:Y O *D sky130_fd_sc_hd__a21oi_1
*CAP
1 *1447:D 0.000560229
2 *1139:Y 0.000560229
3 *1447:D *1134:B1 0
*RES
1 *1139:Y *1447:D 39.8121 
*END

*D_NET *200 0.000815256
*CONN
*I *1448:D I *D sky130_fd_sc_hd__dfxtp_1
*I *1144:Y O *D sky130_fd_sc_hd__a21oi_1
*CAP
1 *1448:D 0.00034313
2 *1144:Y 0.00034313
3 *1448:D *1094:A1 5.52321e-05
4 *52:10 *1448:D 7.37653e-05
5 *81:175 *1448:D 0
6 *81:177 *1448:D 0
*RES
1 *1144:Y *1448:D 35.6512 
*END

*D_NET *201 0.001108
*CONN
*I *1449:D I *D sky130_fd_sc_hd__dfxtp_1
*I *1149:Y O *D sky130_fd_sc_hd__a21oi_1
*CAP
1 *1449:D 0.000431462
2 *1149:Y 0.000431462
3 *1449:D *1149:A1 7.92757e-06
4 *1449:D *1149:B1 0.000123176
5 *53:12 *1449:D 0.000113968
*RES
1 *1149:Y *1449:D 29.8616 
*END

*D_NET *202 0.00132144
*CONN
*I *1450:D I *D sky130_fd_sc_hd__dfxtp_1
*I *1154:Y O *D sky130_fd_sc_hd__a21oi_1
*CAP
1 *1450:D 0.000557881
2 *1154:Y 0.000557881
3 *1450:D *1154:B1 0
4 *1450:D *901:117 0.000165181
5 *54:14 *1450:D 4.04995e-05
*RES
1 *1154:Y *1450:D 39.6727 
*END

*D_NET *203 0.001926
*CONN
*I *1451:D I *D sky130_fd_sc_hd__dfxtp_1
*I *1159:Y O *D sky130_fd_sc_hd__a21oi_1
*CAP
1 *1451:D 0.000759226
2 *1159:Y 0.000759226
3 *1451:D *1089:B1 0.000176469
4 *1451:D *1547:CLK 2.86013e-06
5 *1451:D *900:24 0
6 *1158:B1 *1451:D 2.44829e-05
7 *1430:D *1451:D 0.000157974
8 *81:129 *1451:D 0
9 *81:140 *1451:D 1.5767e-05
10 *81:144 *1451:D 2.99929e-05
*RES
1 *1159:Y *1451:D 41.6447 
*END

*D_NET *204 0.00139664
*CONN
*I *1452:D I *D sky130_fd_sc_hd__dfxtp_1
*I *1164:Y O *D sky130_fd_sc_hd__a21oi_1
*CAP
1 *1452:D 0.000502253
2 *1164:Y 0.000502253
3 *1452:D *1044:B1 0.000153225
4 *1452:D *430:22 0.000153225
5 *57:8 *1452:D 8.56819e-05
*RES
1 *1164:Y *1452:D 40.9213 
*END

*D_NET *205 0.000856775
*CONN
*I *1453:D I *D sky130_fd_sc_hd__edfxtp_1
*I *1165:X O *D sky130_fd_sc_hd__and3_1
*CAP
1 *1453:D 0.000261741
2 *1165:X 0.000261741
3 *1453:D *1165:C 0.000115735
4 *1453:D *1453:DE 3.15154e-05
5 *1453:D *865:289 0.00012136
6 *1165:A *1453:D 6.46815e-05
*RES
1 *1165:X *1453:D 33.0611 
*END

*D_NET *206 0.00058881
*CONN
*I *1454:D I *D sky130_fd_sc_hd__edfxtp_1
*I *1166:X O *D sky130_fd_sc_hd__and3_1
*CAP
1 *1454:D 0.000179245
2 *1166:X 0.000179245
3 *1454:D *423:55 4.66118e-05
4 *1454:D *857:45 0.000152163
5 *123:28 *1454:D 3.15447e-05
*RES
1 *1166:X *1454:D 31.8125 
*END

*D_NET *207 0.00194064
*CONN
*I *1455:D I *D sky130_fd_sc_hd__edfxtp_1
*I *1167:X O *D sky130_fd_sc_hd__and3_1
*CAP
1 *1455:D 0.000608843
2 *1167:X 0.000608843
3 *1455:D *1551:D 0.00013761
4 *1455:D *871:19 0.000127228
5 *1455:D *871:21 2.65661e-05
6 *1455:D *876:10 3.25751e-05
7 *1455:D *876:12 1.82696e-05
8 *1455:D *880:320 1.55462e-05
9 *1455:D *887:272 7.17956e-05
10 *1455:D *887:287 9.83372e-05
11 *1455:D *906:37 6.46815e-05
12 *1455:D *906:64 7.2474e-05
13 *11:17 *1455:D 5.78738e-05
*RES
1 *1167:X *1455:D 45.5249 
*END

*D_NET *208 0.00101489
*CONN
*I *1456:D I *D sky130_fd_sc_hd__edfxtp_1
*I *1168:X O *D sky130_fd_sc_hd__and3_1
*CAP
1 *1456:D 0.000371177
2 *1168:X 0.000371177
3 *1456:D *424:234 1.64383e-05
4 *1456:D *857:39 4.23622e-05
5 *1456:D *877:21 0.000139166
6 *1456:D *884:268 4.05936e-05
7 *1456:DE *1456:D 3.39728e-05
*RES
1 *1168:X *1456:D 34.6157 
*END

*D_NET *209 0.000648054
*CONN
*I *1457:D I *D sky130_fd_sc_hd__edfxtp_1
*I *1169:X O *D sky130_fd_sc_hd__and3_1
*CAP
1 *1457:D 0.000161914
2 *1169:X 0.000161914
3 *1457:D *858:406 0.000123582
4 *1457:D *876:368 6.50586e-05
5 *1457:D *906:102 7.18372e-05
6 *1457:D *906:117 6.37492e-05
7 *121:180 *1457:D 0
*RES
1 *1169:X *1457:D 32.0242 
*END

*D_NET *210 0.00255938
*CONN
*I *1458:D I *D sky130_fd_sc_hd__edfxtp_1
*I *1170:X O *D sky130_fd_sc_hd__and3_1
*CAP
1 *1458:D 0.000643161
2 *1170:X 0.000643161
3 *1458:D *1031:A1 6.72781e-05
4 *1458:D *1031:A3 0
5 *1458:D *1032:A0 0.000154145
6 *1458:D *1034:A2 7.13655e-06
7 *1458:D *1458:CLK 6.3657e-05
8 *1458:D *423:104 0.000739376
9 *1458:D *451:14 4.91225e-06
10 *1458:D *858:219 0
11 *1032:S *1458:D 0.000236556
*RES
1 *1170:X *1458:D 47.6314 
*END

*D_NET *211 0.00208019
*CONN
*I *1459:D I *D sky130_fd_sc_hd__edfxtp_1
*I *1171:X O *D sky130_fd_sc_hd__and3_1
*CAP
1 *1459:D 0.000558105
2 *1171:X 0.000558105
3 *1459:D *1035:A3 0
4 *1459:D *1035:S0 9.00548e-05
5 *1459:D *1171:C 8.76937e-05
6 *1459:D *1267:B 4.31485e-06
7 *1459:D *1459:DE 0.000556078
8 *1459:D *1555:DE 1.91391e-05
9 *1459:D *424:340 0.000206696
*RES
1 *1171:X *1459:D 43.6569 
*END

*D_NET *212 0.0025072
*CONN
*I *1460:D I *D sky130_fd_sc_hd__edfxtp_1
*I *1172:X O *D sky130_fd_sc_hd__and3_1
*CAP
1 *1460:D 0.000338545
2 *1172:X 0.000338545
3 *1460:D *424:53 0.000348795
4 *1460:D *424:55 0.000392524
5 *1460:D *424:61 9.90619e-05
6 *1460:D *884:319 0.000514035
7 *1460:D *884:330 0.00033857
8 *1460:D *904:26 0.000137121
*RES
1 *1172:X *1460:D 44.1616 
*END

*D_NET *213 0.00222091
*CONN
*I *1461:D I *D sky130_fd_sc_hd__edfxtp_1
*I *1173:X O *D sky130_fd_sc_hd__and3_1
*CAP
1 *1461:D 0.000665358
2 *1173:X 0.000665358
3 *1461:D *1557:D 0
4 *1461:D *906:121 0.000151412
5 *31:45 *1461:D 0.000572775
6 *31:47 *1461:D 0.000166012
*RES
1 *1173:X *1461:D 41.7898 
*END

*D_NET *214 0.00033674
*CONN
*I *1462:D I *D sky130_fd_sc_hd__edfxtp_1
*I *1174:X O *D sky130_fd_sc_hd__and3_1
*CAP
1 *1462:D 0.000149857
2 *1174:X 0.000149857
3 *1462:D *1462:CLK 5.48187e-06
4 *1462:DE *1462:D 3.15447e-05
*RES
1 *1174:X *1462:D 30.5345 
*END

*D_NET *215 0.000368841
*CONN
*I *1463:D I *D sky130_fd_sc_hd__edfxtp_1
*I *1175:X O *D sky130_fd_sc_hd__and3_1
*CAP
1 *1463:D 0.000134385
2 *1175:X 0.000134385
3 *1463:D *1463:CLK 0.000100071
4 *123:16 *1463:D 0
*RES
1 *1175:X *1463:D 30.8735 
*END

*D_NET *216 0.000447712
*CONN
*I *1464:D I *D sky130_fd_sc_hd__edfxtp_1
*I *1176:X O *D sky130_fd_sc_hd__and3_1
*CAP
1 *1464:D 0.000147901
2 *1176:X 0.000147901
3 *1464:D *892:71 0.000151909
*RES
1 *1176:X *1464:D 31.6438 
*END

*D_NET *217 0.000968012
*CONN
*I *1465:D I *D sky130_fd_sc_hd__edfxtp_1
*I *1177:X O *D sky130_fd_sc_hd__and3_1
*CAP
1 *1465:D 0.000216203
2 *1177:X 0.000216203
3 *1465:D *1497:D 0.000143664
4 *1465:D *858:443 2.64881e-05
5 *1497:DE *1465:D 0.000217652
6 *4:82 *1465:D 3.2832e-05
7 *121:148 *1465:D 0.00011497
*RES
1 *1177:X *1465:D 34.9658 
*END

*D_NET *218 0.000285512
*CONN
*I *1466:D I *D sky130_fd_sc_hd__edfxtp_1
*I *1178:X O *D sky130_fd_sc_hd__and3_1
*CAP
1 *1466:D 0.000141682
2 *1178:X 0.000141682
3 *1466:D *1282:B 0
4 *1466:D *1466:CLK 2.14842e-06
*RES
1 *1178:X *1466:D 30.5345 
*END

*D_NET *219 0.000781194
*CONN
*I *1467:D I *D sky130_fd_sc_hd__edfxtp_1
*I *1179:X O *D sky130_fd_sc_hd__and3_1
*CAP
1 *1467:D 0.000254568
2 *1179:X 0.000254568
3 *1467:D *858:497 2.38092e-05
4 *1467:D *876:255 6.41754e-05
5 *1467:D *905:53 9.04668e-05
6 *1467:D *905:72 9.36063e-05
*RES
1 *1179:X *1467:D 33.1334 
*END

*D_NET *220 0.000876378
*CONN
*I *1468:D I *D sky130_fd_sc_hd__edfxtp_1
*I *1180:X O *D sky130_fd_sc_hd__and3_1
*CAP
1 *1468:D 0.000194853
2 *1180:X 0.000194853
3 *1468:D *1180:B 6.08467e-05
4 *1468:D *1276:C 9.98172e-05
5 *1468:D *1468:CLK 6.27718e-05
6 *1468:D *424:113 8.52802e-05
7 *1468:D *894:10 0.000177955
*RES
1 *1180:X *1468:D 33.976 
*END

*D_NET *221 0.00216524
*CONN
*I *1469:D I *D sky130_fd_sc_hd__edfxtp_1
*I *1181:X O *D sky130_fd_sc_hd__and3_1
*CAP
1 *1469:D 0.000566236
2 *1181:X 0.000566236
3 *1469:D *1181:B 0.000107496
4 *1469:D *1211:B 0
5 *1469:D *1565:CLK 1.36691e-05
6 *1469:D *1661:DE 8.12363e-05
7 *1469:D *418:461 0
8 *1469:D *423:381 5.23435e-05
9 *1469:D *423:385 0.000156083
10 *1469:D *423:395 6.27301e-05
11 *1469:D *858:480 0.000394813
12 *1469:D *905:36 0.000130694
13 *124:133 *1469:D 3.37023e-05
*RES
1 *1181:X *1469:D 44.9641 
*END

*D_NET *222 0.00113049
*CONN
*I *1470:D I *D sky130_fd_sc_hd__edfxtp_1
*I *1182:X O *D sky130_fd_sc_hd__and3_1
*CAP
1 *1470:D 0.000246737
2 *1182:X 0.000246737
3 *1470:D *874:488 4.67687e-05
4 *1470:D *891:103 5.29719e-05
5 *1470:D *891:107 0.000537273
*RES
1 *1182:X *1470:D 27.4081 
*END

*D_NET *223 0.00208297
*CONN
*I *1471:D I *D sky130_fd_sc_hd__edfxtp_1
*I *1183:X O *D sky130_fd_sc_hd__and3_1
*CAP
1 *1471:D 0.000423649
2 *1183:X 0.000423649
3 *1471:D *1183:B 0.000107496
4 *1471:D *1471:DE 8.37933e-05
5 *1471:D *2272:A 0.000304866
6 *1471:D *418:72 9.05742e-05
7 *1471:D *424:67 6.73023e-05
8 *1471:D *884:185 0.000544007
9 *1155:S0 *1471:D 3.76373e-05
*RES
1 *1183:X *1471:D 41.7284 
*END

*D_NET *224 0.000420804
*CONN
*I *1472:D I *D sky130_fd_sc_hd__edfxtp_1
*I *1184:X O *D sky130_fd_sc_hd__and3_1
*CAP
1 *1472:D 0.000145691
2 *1184:X 0.000145691
3 *1472:D *1472:CLK 9.12033e-06
4 *1472:D *417:322 3.28416e-06
5 *1472:D *871:21 0
6 *1472:D *887:10 0.000117018
*RES
1 *1184:X *1472:D 30.8427 
*END

*D_NET *225 0.00113363
*CONN
*I *1473:D I *D sky130_fd_sc_hd__edfxtp_1
*I *1185:X O *D sky130_fd_sc_hd__and3_1
*CAP
1 *1473:D 0.000289386
2 *1185:X 0.000289386
3 *1473:D *1109:A2 5.54049e-05
4 *1473:D *512:20 7.37164e-05
5 *1473:D *763:20 0.000179271
6 *1473:D *904:147 3.57898e-05
7 *68:308 *1473:D 0
8 *69:220 *1473:D 0.00018714
9 *69:226 *1473:D 2.35336e-05
*RES
1 *1185:X *1473:D 38.0824 
*END

*D_NET *226 0.0022617
*CONN
*I *1474:D I *D sky130_fd_sc_hd__edfxtp_1
*I *1186:X O *D sky130_fd_sc_hd__and3_1
*CAP
1 *1474:D 0.000828091
2 *1186:X 0.000828091
3 *1474:D *1186:C 0.00020975
4 *1474:D *427:472 0.000210121
5 *1474:D *889:239 0.000140477
6 *1474:D *906:127 4.51739e-05
*RES
1 *1186:X *1474:D 44.1146 
*END

*D_NET *227 0.00134489
*CONN
*I *1475:D I *D sky130_fd_sc_hd__edfxtp_1
*I *1187:X O *D sky130_fd_sc_hd__and3_1
*CAP
1 *1475:D 0.000199814
2 *1187:X 0.000199814
3 *1475:D *1187:B 0.000339397
4 *1475:D *867:16 0
5 *1475:D *890:197 4.57211e-05
6 *1475:D *903:215 0.000283602
7 *123:43 *1475:D 0.000276543
*RES
1 *1187:X *1475:D 36.6296 
*END

*D_NET *228 0.000628051
*CONN
*I *1476:D I *D sky130_fd_sc_hd__edfxtp_1
*I *1188:X O *D sky130_fd_sc_hd__and3_1
*CAP
1 *1476:D 0.000198151
2 *1188:X 0.000198151
3 *1476:D *1476:CLK 3.37023e-05
4 *1476:D *418:142 0.000135268
5 *1476:D *868:96 6.27782e-05
6 *1476:D *904:74 0
*RES
1 *1188:X *1476:D 32.3671 
*END

*D_NET *229 0.00176561
*CONN
*I *1477:D I *D sky130_fd_sc_hd__edfxtp_1
*I *1189:X O *D sky130_fd_sc_hd__and3_1
*CAP
1 *1477:D 0.000677223
2 *1189:X 0.000677223
3 *1477:D *1189:C 0
4 *1477:D *1477:CLK 0.000200042
5 *1477:D *417:351 0.000165521
6 *1477:D *876:106 0
7 *17:41 *1477:D 4.56004e-05
*RES
1 *1189:X *1477:D 43.6533 
*END

*D_NET *230 0.00235927
*CONN
*I *1478:D I *D sky130_fd_sc_hd__edfxtp_1
*I *1190:X O *D sky130_fd_sc_hd__and3_1
*CAP
1 *1478:D 0.000627763
2 *1190:X 0.000627763
3 *1478:D *997:B 3.20069e-06
4 *1478:D *1130:S0 9.52181e-06
5 *1478:D *1190:C 1.11594e-05
6 *1478:D *1478:CLK 0.000266285
7 *1478:D *1478:DE 6.66538e-05
8 *1478:D *418:383 0.000672596
9 *1478:D *872:84 2.65667e-05
10 *1478:D *876:106 5.68225e-06
11 *1478:D *906:72 4.20788e-05
12 *18:19 *1478:D 0
13 *18:21 *1478:D 0
*RES
1 *1190:X *1478:D 47.4528 
*END

*D_NET *231 0.00136585
*CONN
*I *1479:D I *D sky130_fd_sc_hd__edfxtp_1
*I *1191:X O *D sky130_fd_sc_hd__and3_1
*CAP
1 *1479:D 0.000386497
2 *1191:X 0.000386497
3 *1479:D *1287:C 0.000116502
4 *1479:D *1479:CLK 5.34249e-06
5 *1479:D *427:431 0
6 *1479:D *888:40 0.000114268
7 *1479:D *888:62 0.00035674
*RES
1 *1191:X *1479:D 38.0413 
*END

*D_NET *232 0.00116161
*CONN
*I *1480:D I *D sky130_fd_sc_hd__edfxtp_1
*I *1192:X O *D sky130_fd_sc_hd__and3_1
*CAP
1 *1480:D 0.00028706
2 *1192:X 0.00028706
3 *1480:D *1171:B 5.49029e-06
4 *1480:D *1192:C 3.75063e-05
5 *1480:D *1384:DE 0.000162042
6 *1480:D *1480:DE 3.15154e-05
7 *1480:D *1512:D 0
8 *1480:D *1576:DE 0.000160061
9 *1480:D *424:368 9.46247e-05
10 *1480:D *858:85 1.07248e-05
11 *1384:D *1480:D 8.55233e-05
*RES
1 *1192:X *1480:D 37.1786 
*END

*D_NET *233 0.00176142
*CONN
*I *1481:D I *D sky130_fd_sc_hd__edfxtp_1
*I *1193:X O *D sky130_fd_sc_hd__and3_1
*CAP
1 *1481:D 0.00057821
2 *1193:X 0.00057821
3 *1481:D *1145:A2 7.50722e-05
4 *1481:D *1145:A3 0.000144219
5 *1481:D *1145:S0 0.000300318
6 *1481:D *1193:C 5.26964e-06
7 *1481:D *418:377 3.05435e-05
8 *1481:D *858:364 0
9 *1481:D *876:62 1.80673e-05
10 *1481:D *906:64 3.15154e-05
*RES
1 *1193:X *1481:D 43.893 
*END

*D_NET *234 0.00138605
*CONN
*I *1482:D I *D sky130_fd_sc_hd__edfxtp_1
*I *1194:X O *D sky130_fd_sc_hd__and3_1
*CAP
1 *1482:D 0.000319988
2 *1194:X 0.000319988
3 *1482:D *1482:DE 0.000146652
4 *1482:D *1578:D 0.000367632
5 *1482:D *418:320 6.27332e-05
6 *1482:D *886:170 6.37652e-06
7 *1482:D *886:172 1.04617e-05
8 *1482:D *886:176 0.000152214
*RES
1 *1194:X *1482:D 37.0489 
*END

*D_NET *235 0.00100618
*CONN
*I *1483:D I *D sky130_fd_sc_hd__edfxtp_1
*I *1195:X O *D sky130_fd_sc_hd__and3_1
*CAP
1 *1483:D 0.000219617
2 *1195:X 0.000219617
3 *1483:D *1195:B 6.08467e-05
4 *1483:D *1579:D 0
5 *1483:D *418:87 0.000174354
6 *1483:D *551:14 9.52181e-06
7 *1483:D *904:36 0.000290629
8 *1483:D *904:54 3.15919e-05
*RES
1 *1195:X *1483:D 35.0685 
*END

*D_NET *236 0.000530549
*CONN
*I *1484:D I *D sky130_fd_sc_hd__edfxtp_1
*I *1196:X O *D sky130_fd_sc_hd__and3_1
*CAP
1 *1484:D 0.000112681
2 *1196:X 0.000112681
3 *1484:D *1484:DE 9.13061e-05
4 *1484:D *876:131 6.53429e-05
5 *1484:D *905:12 0.000139912
6 *1484:D *905:22 8.62625e-06
*RES
1 *1196:X *1484:D 31.7161 
*END

*D_NET *237 0.000422573
*CONN
*I *1485:D I *D sky130_fd_sc_hd__edfxtp_1
*I *1197:X O *D sky130_fd_sc_hd__and2_0
*CAP
1 *1485:D 0.000140782
2 *1197:X 0.000140782
3 *1485:D *1549:D 6.66393e-05
4 *1485:D *865:289 5.96936e-05
5 *1485:D *874:488 5.49079e-06
6 *1165:A *1485:D 9.18559e-06
*RES
1 *1197:X *1485:D 31.2579 
*END

*D_NET *238 0.00101988
*CONN
*I *1486:D I *D sky130_fd_sc_hd__edfxtp_1
*I *1198:X O *D sky130_fd_sc_hd__and2_0
*CAP
1 *1486:D 0.000295841
2 *1198:X 0.000295841
3 *1486:D *1646:D 3.23152e-05
4 *1486:D *865:168 0.000158132
5 *1486:D *884:189 0
6 *1486:D *884:202 0.000118166
7 *1486:D *884:210 0.000119584
*RES
1 *1198:X *1486:D 35.8594 
*END

*D_NET *239 0.00105949
*CONN
*I *1487:D I *D sky130_fd_sc_hd__edfxtp_1
*I *1199:X O *D sky130_fd_sc_hd__and2_0
*CAP
1 *1487:D 0.000442003
2 *1199:X 0.000442003
3 *1487:D *880:12 0
4 *1199:A *1487:D 0.000175485
5 *121:59 *1487:D 0
*RES
1 *1199:X *1487:D 36.0282 
*END

*D_NET *240 0.0014924
*CONN
*I *1488:D I *D sky130_fd_sc_hd__edfxtp_1
*I *1200:X O *D sky130_fd_sc_hd__and2_0
*CAP
1 *1488:D 0.000405503
2 *1200:X 0.000405503
3 *1488:D *1488:DE 9.7112e-06
4 *1488:D *424:234 0
5 *1488:D *857:45 0.000671687
6 *1488:D *884:268 0
*RES
1 *1200:X *1488:D 40.0853 
*END

*D_NET *241 0.00041124
*CONN
*I *1489:D I *D sky130_fd_sc_hd__edfxtp_1
*I *1201:X O *D sky130_fd_sc_hd__and2_0
*CAP
1 *1489:D 0.000158703
2 *1201:X 0.000158703
3 *1489:D *966:B 3.15154e-05
4 *1489:D *1223:B 2.65831e-05
5 *1489:D *2292:A 0
6 *1489:D *888:217 9.12033e-06
7 *1489:DE *1489:D 1.59362e-06
8 *27:44 *1489:D 2.50202e-05
*RES
1 *1201:X *1489:D 30.8427 
*END

*D_NET *242 0.00219894
*CONN
*I *1490:D I *D sky130_fd_sc_hd__edfxtp_1
*I *1202:X O *D sky130_fd_sc_hd__and2_0
*CAP
1 *1490:D 0.000462464
2 *1202:X 0.000462464
3 *1490:D *1170:B 9.49786e-06
4 *1490:D *1170:C 1.91246e-05
5 *1490:D *1554:CLK 0.000208915
6 *1490:D *894:156 0.000132208
7 *1490:D *894:173 0.000420613
8 *1490:D *894:242 0.000187385
9 *1490:D *894:253 0.000107643
10 *1490:D *904:62 0
11 *1030:S1 *1490:D 6.08467e-05
12 *69:75 *1490:D 0.000127779
*RES
1 *1202:X *1490:D 45.0345 
*END

*D_NET *243 0.000955381
*CONN
*I *1491:D I *D sky130_fd_sc_hd__edfxtp_1
*I *1203:X O *D sky130_fd_sc_hd__and2_0
*CAP
1 *1491:D 0.000315354
2 *1203:X 0.000315354
3 *1491:D *1395:CLK 2.58338e-05
4 *1491:D *1491:DE 6.5594e-05
5 *1491:D *424:325 7.12957e-05
6 *29:41 *1491:D 0.00016195
7 *29:65 *1491:D 0
*RES
1 *1203:X *1491:D 34.7973 
*END

*D_NET *244 0.00187061
*CONN
*I *1492:D I *D sky130_fd_sc_hd__edfxtp_1
*I *1204:X O *D sky130_fd_sc_hd__and2_0
*CAP
1 *1492:D 0.000271125
2 *1204:X 0.000271125
3 *1492:D *1492:DE 3.42041e-05
4 *1492:D *1655:DE 0.000292024
5 *1492:D *858:263 0.000262725
6 *1492:D *865:30 4.66492e-05
7 *1492:D *865:57 2.86829e-05
8 *1492:D *884:339 5.12093e-05
9 *1492:D *904:26 0.000580398
10 *1041:S0 *1492:D 3.24665e-05
*RES
1 *1204:X *1492:D 41.2669 
*END

*D_NET *245 0.000698703
*CONN
*I *1493:D I *D sky130_fd_sc_hd__edfxtp_1
*I *1205:X O *D sky130_fd_sc_hd__and2_0
*CAP
1 *1493:D 0.000289564
2 *1205:X 0.000289564
3 *1493:D *417:353 5.09247e-06
4 *1493:D *417:426 4.15008e-05
5 *1493:D *418:518 4.69495e-06
6 *1493:DE *1493:D 6.82878e-05
*RES
1 *1205:X *1493:D 34.2104 
*END

*D_NET *246 0.00044988
*CONN
*I *1494:D I *D sky130_fd_sc_hd__edfxtp_1
*I *1206:X O *D sky130_fd_sc_hd__and2_0
*CAP
1 *1494:D 0.000115806
2 *1206:X 0.000115806
3 *1494:D *1206:B 5.39608e-05
4 *1494:D *1494:DE 3.14375e-05
5 *1494:D *856:333 0.000118485
6 *32:82 *1494:D 1.43848e-05
*RES
1 *1206:X *1494:D 30.8427 
*END

*D_NET *247 0.000364361
*CONN
*I *1495:D I *D sky130_fd_sc_hd__edfxtp_1
*I *1207:X O *D sky130_fd_sc_hd__and2_0
*CAP
1 *1495:D 0.000138304
2 *1207:X 0.000138304
3 *1495:D *424:53 3.58321e-05
4 *1495:D *865:16 9.22013e-06
5 *1495:D *865:30 4.27003e-05
*RES
1 *1207:X *1495:D 30.8427 
*END

*D_NET *248 0.00120757
*CONN
*I *1496:D I *D sky130_fd_sc_hd__edfxtp_1
*I *1208:X O *D sky130_fd_sc_hd__and2_0
*CAP
1 *1496:D 0.000388447
2 *1208:X 0.000388447
3 *1496:D *1496:CLK 3.99086e-06
4 *1496:D *1496:DE 0.000137135
5 *1496:D *857:98 0
6 *1496:D *857:108 0
7 *1496:D *867:50 0.000289554
*RES
1 *1208:X *1496:D 37.5232 
*END

*D_NET *249 0.00138232
*CONN
*I *1497:D I *D sky130_fd_sc_hd__edfxtp_1
*I *1209:X O *D sky130_fd_sc_hd__and2_0
*CAP
1 *1497:D 0.000306823
2 *1209:X 0.000306823
3 *1497:D *1065:S0 5.49079e-06
4 *1497:D *890:117 8.10514e-06
5 *1273:A *1497:D 3.99086e-06
6 *1465:D *1497:D 0.000143664
7 *1497:DE *1497:D 0.000141975
8 *4:82 *1497:D 0.000463033
9 *4:86 *1497:D 2.41274e-06
*RES
1 *1209:X *1497:D 37.902 
*END

*D_NET *250 0.000835718
*CONN
*I *1498:D I *D sky130_fd_sc_hd__edfxtp_1
*I *1210:X O *D sky130_fd_sc_hd__and2_0
*CAP
1 *1498:D 0.000229234
2 *1210:X 0.000229234
3 *1498:D *871:125 6.27718e-05
4 *1498:D *890:246 6.55898e-05
5 *1178:A *1498:D 3.61486e-05
6 *1498:DE *1498:D 6.92705e-05
7 *5:42 *1498:D 0.000143469
*RES
1 *1210:X *1498:D 34.1033 
*END

*D_NET *251 0.000598233
*CONN
*I *1499:D I *D sky130_fd_sc_hd__edfxtp_1
*I *1211:X O *D sky130_fd_sc_hd__and2_0
*CAP
1 *1499:D 9.76433e-05
2 *1211:X 9.76433e-05
3 *1499:D *1211:B 0.000156823
4 *1499:D *1499:DE 3.14375e-05
5 *1499:D *876:242 0.000149628
6 *1499:D *891:309 6.50586e-05
*RES
1 *1211:X *1499:D 31.2579 
*END

*D_NET *252 0.00108062
*CONN
*I *1500:D I *D sky130_fd_sc_hd__edfxtp_1
*I *1212:X O *D sky130_fd_sc_hd__and2_0
*CAP
1 *1500:D 0.000506218
2 *1212:X 0.000506218
3 *1500:D *1500:CLK 3.81806e-05
4 *1500:D *1660:DE 0
5 *1500:D *493:16 3.00073e-05
*RES
1 *1212:X *1500:D 39.187 
*END

*D_NET *253 0.00172857
*CONN
*I *1501:D I *D sky130_fd_sc_hd__edfxtp_1
*I *1213:X O *D sky130_fd_sc_hd__and2_0
*CAP
1 *1501:D 0.00043925
2 *1213:X 0.00043925
3 *1501:D *1213:B 6.27718e-05
4 *1501:D *1373:B 0.000208599
5 *1501:D *1661:D 3.30578e-05
6 *1501:D *423:395 0
7 *1501:D *858:470 0
8 *1501:D *865:371 3.57898e-05
9 *1181:A *1501:D 0.000370567
10 *8:31 *1501:D 5.99352e-05
11 *8:33 *1501:D 7.93533e-05
*RES
1 *1213:X *1501:D 41.0959 
*END

*D_NET *254 0.000787943
*CONN
*I *1502:D I *D sky130_fd_sc_hd__edfxtp_1
*I *1214:X O *D sky130_fd_sc_hd__and2_0
*CAP
1 *1502:D 0.00023355
2 *1214:X 0.00023355
3 *1502:D *318:24 0.000110458
4 *1502:D *865:262 6.13082e-05
5 *1502:D *865:289 8.90427e-05
6 *1502:D *874:461 6.00336e-05
*RES
1 *1214:X *1502:D 32.9941 
*END

*D_NET *255 0.000592612
*CONN
*I *1503:D I *D sky130_fd_sc_hd__edfxtp_1
*I *1215:X O *D sky130_fd_sc_hd__and2_0
*CAP
1 *1503:D 0.000217579
2 *1215:X 0.000217579
3 *1503:D *1503:CLK 6.36477e-05
4 *1503:D *437:24 4.89268e-05
5 *1503:D *858:197 4.48783e-05
6 *1503:D *884:33 0
*RES
1 *1215:X *1503:D 33.0919 
*END

*D_NET *256 0.00116982
*CONN
*I *1504:D I *D sky130_fd_sc_hd__edfxtp_1
*I *1216:X O *D sky130_fd_sc_hd__and2_0
*CAP
1 *1504:D 0.000421361
2 *1216:X 0.000421361
3 *1504:D *1216:B 2.20702e-05
4 *1504:D *1504:CLK 3.37313e-05
5 *1504:D *880:29 2.33193e-05
6 *1504:D *887:79 9.99655e-05
7 *1216:A *1504:D 8.65522e-05
8 *1504:DE *1504:D 6.1458e-05
9 *121:59 *1504:D 0
*RES
1 *1216:X *1504:D 37.4362 
*END

*D_NET *257 0.00130751
*CONN
*I *1505:D I *D sky130_fd_sc_hd__edfxtp_1
*I *1217:X O *D sky130_fd_sc_hd__and2_0
*CAP
1 *1505:D 0.000463852
2 *1217:X 0.000463852
3 *1505:D *1106:A0 5.04829e-06
4 *1505:D *1505:CLK 4.16434e-05
5 *1505:D *512:20 6.80097e-05
6 *1505:D *865:199 0.000129679
7 *1106:S1 *1505:D 0
8 *1377:D *1505:D 0.000106962
9 *13:28 *1505:D 2.84661e-05
*RES
1 *1217:X *1505:D 38.4622 
*END

*D_NET *258 0.000875999
*CONN
*I *1506:D I *D sky130_fd_sc_hd__edfxtp_1
*I *1218:X O *D sky130_fd_sc_hd__and2_0
*CAP
1 *1506:D 0.000267487
2 *1218:X 0.000267487
3 *1506:D *1196:B 5.75759e-05
4 *1506:D *1314:B 5.98396e-05
5 *1506:D *418:537 5.77231e-05
6 *1506:DE *1506:D 6.42418e-05
7 *14:32 *1506:D 6.75453e-05
8 *14:49 *1506:D 3.41004e-05
*RES
1 *1218:X *1506:D 35.5983 
*END

*D_NET *259 0.000823038
*CONN
*I *1507:D I *D sky130_fd_sc_hd__edfxtp_1
*I *1219:X O *D sky130_fd_sc_hd__and2_0
*CAP
1 *1507:D 0.000100432
2 *1219:X 0.000100432
3 *1507:D *1219:B 0.000114584
4 *1507:D *1507:CLK 6.22703e-05
5 *1507:D *1507:DE 0.000131208
6 *1507:D *865:336 0.000314112
*RES
1 *1219:X *1507:D 23.3089 
*END

*D_NET *260 0.00070538
*CONN
*I *1508:D I *D sky130_fd_sc_hd__edfxtp_1
*I *1220:X O *D sky130_fd_sc_hd__and2_0
*CAP
1 *1508:D 0.000278801
2 *1220:X 0.000278801
3 *1508:D *1284:B 0
4 *1508:D *1508:DE 0.000147777
5 *16:15 *1508:D 0
*RES
1 *1220:X *1508:D 34.1955 
*END

*D_NET *261 0.000873715
*CONN
*I *1509:D I *D sky130_fd_sc_hd__edfxtp_1
*I *1221:X O *D sky130_fd_sc_hd__and2_0
*CAP
1 *1509:D 0.00018249
2 *1221:X 0.00018249
3 *1509:D *1285:B 0.000107496
4 *1509:D *417:351 2.84467e-05
5 *1509:D *876:125 0.000145532
6 *1509:DE *1509:D 8.53392e-05
7 *121:112 *1509:D 0.00014192
*RES
1 *1221:X *1509:D 32.9941 
*END

*D_NET *262 0.00231497
*CONN
*I *1510:D I *D sky130_fd_sc_hd__edfxtp_1
*I *1222:X O *D sky130_fd_sc_hd__and2_0
*CAP
1 *1510:D 0.000557785
2 *1222:X 0.000557785
3 *1510:D *1510:CLK 0.000117872
4 *1510:D *418:396 6.44964e-06
5 *1510:D *872:86 0.000326453
6 *1510:D *876:102 0.000415487
7 *1510:D *876:104 7.44044e-06
8 *1510:D *888:167 0.000196072
9 *121:91 *1510:D 0.000129623
*RES
1 *1222:X *1510:D 41.2352 
*END

*D_NET *263 0.00141062
*CONN
*I *1511:D I *D sky130_fd_sc_hd__edfxtp_1
*I *1223:X O *D sky130_fd_sc_hd__and2_0
*CAP
1 *1511:D 0.000300119
2 *1223:X 0.000300119
3 *1511:D *1383:CLK 1.37421e-05
4 *1511:D *878:148 7.74066e-05
5 *1511:D *888:12 6.08502e-05
6 *1511:D *888:25 0.000156076
7 *1511:D *888:34 0.000172484
8 *1223:A *1511:D 0.000169684
9 *1383:D *1511:D 0.000160135
*RES
1 *1223:X *1511:D 37.6597 
*END

*D_NET *264 0.00105127
*CONN
*I *1512:D I *D sky130_fd_sc_hd__edfxtp_1
*I *1224:X O *D sky130_fd_sc_hd__and2_0
*CAP
1 *1512:D 0.000386594
2 *1224:X 0.000386594
3 *1512:D *1512:DE 4.99167e-05
4 *1512:D *423:169 0
5 *1512:D *424:364 1.39721e-05
6 *1512:D *892:159 2.66569e-05
7 *1288:A *1512:D 0.000167076
8 *1384:D *1512:D 2.04654e-05
9 *1480:D *1512:D 0
*RES
1 *1224:X *1512:D 35.6892 
*END

*D_NET *265 0.00147739
*CONN
*I *1513:D I *D sky130_fd_sc_hd__edfxtp_1
*I *1225:X O *D sky130_fd_sc_hd__and2_0
*CAP
1 *1513:D 0.000432465
2 *1225:X 0.000432465
3 *1513:D *418:360 0.000403908
4 *1513:D *418:377 2.29454e-05
5 *1513:D *423:352 1.91246e-05
6 *1513:D *887:340 3.03964e-05
7 *21:41 *1513:D 0
8 *121:80 *1513:D 0.000136084
*RES
1 *1225:X *1513:D 36.0338 
*END

*D_NET *266 0.00174833
*CONN
*I *1514:D I *D sky130_fd_sc_hd__edfxtp_1
*I *1226:X O *D sky130_fd_sc_hd__and2_0
*CAP
1 *1514:D 0.000532076
2 *1226:X 0.000532076
3 *1514:D *1514:CLK 0.000136084
4 *1514:D *418:16 0.000131924
5 *1514:D *421:51 0.000165766
6 *22:23 *1514:D 0.000187627
7 *22:31 *1514:D 6.27782e-05
*RES
1 *1226:X *1514:D 38.3887 
*END

*D_NET *267 0.000679487
*CONN
*I *1515:D I *D sky130_fd_sc_hd__edfxtp_1
*I *1227:X O *D sky130_fd_sc_hd__and2_0
*CAP
1 *1515:D 0.000219626
2 *1227:X 0.000219626
3 *1515:D *1515:DE 6.42482e-05
4 *1515:D *418:87 0.000145903
5 *1515:D *423:79 3.00829e-05
6 *1515:D *868:27 0
*RES
1 *1227:X *1515:D 32.9941 
*END

*D_NET *268 0.00105438
*CONN
*I *1516:D I *D sky130_fd_sc_hd__edfxtp_1
*I *1228:X O *D sky130_fd_sc_hd__and2_0
*CAP
1 *1516:D 0.000273201
2 *1228:X 0.000273201
3 *1516:D *1228:B 0.000477721
4 *1516:D *1516:CLK 3.02534e-05
*RES
1 *1228:X *1516:D 26.0819 
*END

*D_NET *269 0.000583946
*CONN
*I *1517:D I *D sky130_fd_sc_hd__edfxtp_1
*I *1229:X O *D sky130_fd_sc_hd__and3_1
*CAP
1 *1517:D 0.000149142
2 *1229:X 0.000149142
3 *1517:D *1229:C 9.4545e-05
4 *1517:D *856:187 0.000136279
5 *1517:D *866:84 0
6 *1517:D *891:56 5.48387e-05
*RES
1 *1229:X *1517:D 31.7773 
*END

*D_NET *270 0.000683582
*CONN
*I *1518:D I *D sky130_fd_sc_hd__edfxtp_1
*I *1230:X O *D sky130_fd_sc_hd__and3_1
*CAP
1 *1518:D 0.000324689
2 *1230:X 0.000324689
3 *1518:D *1294:C 0
4 *1518:D *1518:DE 3.42041e-05
5 *12:48 *1518:D 0
*RES
1 *1230:X *1518:D 34.6285 
*END

*D_NET *271 0.00117171
*CONN
*I *1519:D I *D sky130_fd_sc_hd__edfxtp_1
*I *1231:X O *D sky130_fd_sc_hd__and3_1
*CAP
1 *1519:D 0.000530849
2 *1231:X 0.000530849
3 *1519:D *1231:C 3.37984e-05
4 *1519:D *1327:C 0
5 *1519:D *1615:CLK 0
6 *1519:D *1615:D 1.92793e-05
7 *1519:D *872:37 5.22654e-06
8 *1231:A *1519:D 1.04235e-05
9 *125:23 *1519:D 5.49079e-06
10 *126:16 *1519:D 3.57898e-05
*RES
1 *1231:X *1519:D 36.2494 
*END

*D_NET *272 0.00266144
*CONN
*I *1520:D I *D sky130_fd_sc_hd__edfxtp_1
*I *1232:X O *D sky130_fd_sc_hd__and3_1
*CAP
1 *1520:D 0.000776499
2 *1232:X 0.000776499
3 *1520:D *1232:B 0.000306769
4 *1520:D *1296:B 5.20546e-06
5 *1520:D *1520:CLK 6.50586e-05
6 *1520:D *1584:D 1.03403e-05
7 *1520:D *860:13 3.93257e-06
8 *1520:D *874:34 0.000260674
9 *1520:D *874:40 8.36586e-06
10 *1520:D *875:44 9.43124e-05
11 *1520:D *875:52 7.40302e-05
12 *1296:A *1520:D 0.000119486
13 *26:78 *1520:D 0.000160262
*RES
1 *1232:X *1520:D 45.4564 
*END

*D_NET *273 0.000811605
*CONN
*I *1521:D I *D sky130_fd_sc_hd__edfxtp_1
*I *1233:X O *D sky130_fd_sc_hd__and3_1
*CAP
1 *1521:D 0.000208369
2 *1233:X 0.000208369
3 *1521:D *1233:B 6.27718e-05
4 *1521:D *870:27 6.27782e-05
5 *1521:D *888:149 3.01036e-05
6 *1521:DE *1521:D 0.000225198
7 *125:79 *1521:D 1.40158e-05
*RES
1 *1233:X *1521:D 32.9941 
*END

*D_NET *274 0.000998664
*CONN
*I *1522:D I *D sky130_fd_sc_hd__edfxtp_1
*I *1234:X O *D sky130_fd_sc_hd__and3_1
*CAP
1 *1522:D 0.000220159
2 *1234:X 0.000220159
3 *1522:D *1234:B 0.000111722
4 *1522:D *1522:CLK 2.9377e-05
5 *1522:D *1522:DE 6.82878e-05
6 *1522:D *1586:CLK 8.16827e-05
7 *1522:D *894:300 0.000189955
8 *28:15 *1522:D 7.7321e-05
*RES
1 *1234:X *1522:D 35.0732 
*END

*D_NET *275 0.00131963
*CONN
*I *1523:D I *D sky130_fd_sc_hd__edfxtp_1
*I *1235:X O *D sky130_fd_sc_hd__and3_1
*CAP
1 *1523:D 0.000372466
2 *1235:X 0.000372466
3 *1523:D *1331:B 0.000197414
4 *1523:D *1331:C 1.66626e-05
5 *1523:D *1587:D 2.29357e-05
6 *1523:D *541:16 5.34249e-06
7 *1523:D *880:59 2.59614e-05
8 *1523:D *893:191 3.20069e-06
9 *1523:D *893:193 7.21493e-05
10 *1523:D *893:199 0.000231031
*RES
1 *1235:X *1523:D 38.3999 
*END

*D_NET *276 0.00242839
*CONN
*I *1524:D I *D sky130_fd_sc_hd__edfxtp_1
*I *1236:X O *D sky130_fd_sc_hd__and3_1
*CAP
1 *1524:D 0
2 *1236:X 0.000834276
3 *276:12 0.000834276
4 *276:12 *1524:CLK 0.000189386
5 *276:12 *1620:D 0.000483352
6 *276:12 *856:28 3.42853e-05
7 *276:12 *856:30 0
8 *276:12 *869:10 4.77834e-05
9 *276:12 *869:12 5.03545e-06
10 *276:12 *873:30 0
11 *276:12 *873:32 0
*RES
1 *1236:X *276:12 41.0075 
2 *276:12 *1524:D 9.24915 
*END

*D_NET *277 0.00143984
*CONN
*I *1525:D I *D sky130_fd_sc_hd__edfxtp_1
*I *1237:X O *D sky130_fd_sc_hd__and3_1
*CAP
1 *1525:D 0.000449068
2 *1237:X 0.000449068
3 *1525:D *1397:CLK 2.33193e-05
4 *1525:D *341:20 8.42598e-05
5 *1525:D *427:442 2.18041e-06
6 *1525:D *870:76 0.000160388
7 *125:97 *1525:D 0.00014035
8 *126:93 *1525:D 0.000131208
*RES
1 *1237:X *1525:D 36.804 
*END

*D_NET *278 0.000617432
*CONN
*I *1526:D I *D sky130_fd_sc_hd__edfxtp_1
*I *1238:X O *D sky130_fd_sc_hd__and3_1
*CAP
1 *1526:D 9.23574e-05
2 *1238:X 9.23574e-05
3 *1526:D *1238:B 0.000148144
4 *1526:D *1526:DE 0.000131348
5 *1526:D *2270:A 0.000153225
*RES
1 *1238:X *1526:D 31.6438 
*END

*D_NET *279 0.00220409
*CONN
*I *1527:D I *D sky130_fd_sc_hd__edfxtp_1
*I *1239:X O *D sky130_fd_sc_hd__and3_1
*CAP
1 *1527:D 0.000592203
2 *1239:X 0.000592203
3 *1527:D *1239:C 7.58289e-06
4 *1527:D *1335:C 5.60878e-05
5 *1527:D *1527:CLK 0.000194465
6 *1527:D *1527:DE 3.39728e-05
7 *1527:D *419:28 0.000128515
8 *1527:D *873:24 0.000107496
9 *1527:D *873:30 0.000118166
10 *1239:A *1527:D 0.000126009
11 *2:13 *1527:D 0.000208571
12 *2:87 *1527:D 3.88213e-05
*RES
1 *1239:X *1527:D 46.2962 
*END

*D_NET *280 0.00174055
*CONN
*I *1528:D I *D sky130_fd_sc_hd__edfxtp_1
*I *1240:X O *D sky130_fd_sc_hd__and3_1
*CAP
1 *1528:D 0.000441009
2 *1240:X 0.000441009
3 *1528:D *1528:DE 3.57426e-05
4 *1528:D *857:108 4.24662e-05
5 *1528:D *858:34 8.81353e-05
6 *1528:D *858:47 0.000226008
7 *1528:D *865:218 7.53199e-05
8 *1528:D *865:220 1.52868e-05
9 *1528:D *867:61 0.000112361
10 *1528:D *874:354 0.000259225
11 *1528:D *875:118 3.99086e-06
12 *1528:D *875:120 0
*RES
1 *1240:X *1528:D 41.2324 
*END

*D_NET *281 0.000422388
*CONN
*I *1529:D I *D sky130_fd_sc_hd__edfxtp_1
*I *1241:X O *D sky130_fd_sc_hd__and3_1
*CAP
1 *1529:D 0.000132391
2 *1241:X 0.000132391
3 *1529:D *1241:C 0.000113717
4 *1529:D *1337:C 1.32772e-05
5 *1529:D *1625:D 5.48187e-06
6 *1529:D *890:141 2.5131e-05
*RES
1 *1241:X *1529:D 30.8427 
*END

*D_NET *282 0.00027594
*CONN
*I *1530:D I *D sky130_fd_sc_hd__edfxtp_1
*I *1242:X O *D sky130_fd_sc_hd__and3_1
*CAP
1 *1530:D 8.52501e-05
2 *1242:X 8.52501e-05
3 *1530:D *1072:A1 5.08824e-05
4 *1530:D *870:98 5.45575e-05
*RES
1 *1242:X *1530:D 30.1193 
*END

*D_NET *283 0.000931781
*CONN
*I *1531:D I *D sky130_fd_sc_hd__edfxtp_1
*I *1243:X O *D sky130_fd_sc_hd__and3_1
*CAP
1 *1531:D 0.000229503
2 *1243:X 0.000229503
3 *1531:D *1075:A0 0.000139817
4 *1531:D *1627:D 5.35603e-05
5 *1531:D *856:212 9.12502e-05
6 *1531:D *874:592 2.89052e-05
7 *1531:D *891:269 0.000159243
*RES
1 *1243:X *1531:D 33.5487 
*END

*D_NET *284 0.00107703
*CONN
*I *1532:D I *D sky130_fd_sc_hd__edfxtp_1
*I *1244:X O *D sky130_fd_sc_hd__and3_1
*CAP
1 *1532:D 0.00022074
2 *1244:X 0.00022074
3 *1532:D *1084:A2 0.000222149
4 *1532:D *1244:C 0.000176092
5 *1532:D *1532:DE 6.46815e-05
6 *7:26 *1532:D 0.000172631
*RES
1 *1244:X *1532:D 35.0732 
*END

*D_NET *285 0.00241121
*CONN
*I *1533:D I *D sky130_fd_sc_hd__edfxtp_1
*I *1245:X O *D sky130_fd_sc_hd__and3_1
*CAP
1 *1533:D 0
2 *1245:X 0.000706292
3 *285:26 0.000706292
4 *285:26 *1533:CLK 0.000188733
5 *285:26 *1597:D 0.000155034
6 *285:26 *427:512 3.15663e-05
7 *1533:DE *285:26 0.000194583
8 *1597:DE *285:26 0.000163478
9 *8:19 *285:26 0
10 *8:74 *285:26 1.91246e-05
11 *126:139 *285:26 0.000246111
*RES
1 *1245:X *285:26 44.9252 
2 *285:26 *1533:D 9.24915 
*END

*D_NET *286 0.00039212
*CONN
*I *1534:D I *D sky130_fd_sc_hd__edfxtp_1
*I *1246:X O *D sky130_fd_sc_hd__and3_1
*CAP
1 *1534:D 6.06597e-05
2 *1246:X 6.06597e-05
3 *1534:D *1310:C 0.00012136
4 *1534:D *856:168 3.14375e-05
5 *1534:D *874:459 0.000118002
*RES
1 *1246:X *1534:D 30.1193 
*END

*D_NET *287 0.00141885
*CONN
*I *1535:D I *D sky130_fd_sc_hd__edfxtp_1
*I *1247:X O *D sky130_fd_sc_hd__and3_1
*CAP
1 *1535:D 0.00049595
2 *1247:X 0.00049595
3 *1535:D *1069:A2 0
4 *1535:D *1535:CLK 9.38699e-06
5 *1535:D *430:388 0.000338711
6 *1442:D *1535:D 0
7 *10:37 *1535:D 2.85274e-05
8 *10:44 *1535:D 5.03285e-05
*RES
1 *1247:X *1535:D 40.126 
*END

*D_NET *288 0.00122535
*CONN
*I *1536:D I *D sky130_fd_sc_hd__edfxtp_1
*I *1248:X O *D sky130_fd_sc_hd__and3_1
*CAP
1 *1536:D 0.000289139
2 *1248:X 0.000289139
3 *1536:D *1248:B 0.000107496
4 *1536:D *1536:DE 5.74027e-05
5 *1536:D *1600:D 9.76996e-05
6 *1536:D *443:12 0.000293593
7 *1536:D *874:261 8.70662e-06
8 *1536:D *879:51 6.91232e-06
9 *1248:A *1536:D 3.024e-05
10 *1344:A *1536:D 2.41274e-06
11 *11:61 *1536:D 1.9939e-05
12 *11:65 *1536:D 2.26708e-05
*RES
1 *1248:X *1536:D 36.4675 
*END

*D_NET *289 0.00201754
*CONN
*I *1537:D I *D sky130_fd_sc_hd__edfxtp_1
*I *1249:X O *D sky130_fd_sc_hd__and3_1
*CAP
1 *1537:D 0.000584299
2 *1249:X 0.000584299
3 *1537:D *1030:A0 0
4 *1537:D *1030:A1 0
5 *1537:D *1537:CLK 0.000110306
6 *1537:D *1633:CLK 0
7 *1537:D *1633:D 0.000139705
8 *1537:D *427:139 4.25818e-05
9 *1537:D *427:155 0.000246874
10 *1537:D *451:14 8.57899e-05
11 *1537:D *874:83 2.99273e-05
12 *1537:D *874:99 9.29919e-05
13 *1537:D *894:225 3.31733e-05
14 *1537:D *903:69 0
15 *1249:A *1537:D 8.23171e-06
16 *13:55 *1537:D 5.20761e-05
17 *13:64 *1537:D 7.28567e-06
*RES
1 *1249:X *1537:D 44.9725 
*END

*D_NET *290 0.0013986
*CONN
*I *1538:D I *D sky130_fd_sc_hd__edfxtp_1
*I *1250:X O *D sky130_fd_sc_hd__and3_1
*CAP
1 *1538:D 0.000608119
2 *1250:X 0.000608119
3 *1538:D *1110:S0 0.000141864
4 *1538:D *427:456 4.25622e-06
5 *1538:D *889:243 6.74005e-06
6 *1538:D *889:267 2.95039e-05
*RES
1 *1250:X *1538:D 37.3586 
*END

*D_NET *291 0.00121575
*CONN
*I *1539:D I *D sky130_fd_sc_hd__edfxtp_1
*I *1251:X O *D sky130_fd_sc_hd__and3_1
*CAP
1 *1539:D 0.000276474
2 *1251:X 0.000276474
3 *1539:D *1251:B 0.000110297
4 *1539:D *1251:C 1.69591e-06
5 *1539:D *1571:CLK 0.000136279
6 *1539:D *865:346 0.00018769
7 *1539:D *875:91 0.000212455
8 *1251:A *1539:D 1.43848e-05
*RES
1 *1251:X *1539:D 36.031 
*END

*D_NET *292 0.00114714
*CONN
*I *1540:D I *D sky130_fd_sc_hd__edfxtp_1
*I *1252:X O *D sky130_fd_sc_hd__and3_1
*CAP
1 *1540:D 0.000374173
2 *1252:X 0.000374173
3 *1540:D *1252:B 0.00022067
4 *1540:D *1252:C 0
5 *1540:D *1540:DE 9.70097e-06
6 *1540:D *1604:D 0
7 *1540:D *1604:DE 0
8 *1540:D *541:16 5.49079e-06
9 *1540:D *874:103 0
10 *16:60 *1540:D 0.000162936
*RES
1 *1252:X *1540:D 35.8285 
*END

*D_NET *293 0.000739297
*CONN
*I *1541:D I *D sky130_fd_sc_hd__edfxtp_1
*I *1253:X O *D sky130_fd_sc_hd__and3_1
*CAP
1 *1541:D 0.00020144
2 *1253:X 0.00020144
3 *1541:D *996:C 2.37138e-05
4 *1253:A *1541:D 0.000312704
*RES
1 *1253:X *1541:D 23.9479 
*END

*D_NET *294 0.00186457
*CONN
*I *1542:D I *D sky130_fd_sc_hd__edfxtp_1
*I *1254:X O *D sky130_fd_sc_hd__and3_1
*CAP
1 *1542:D 0.000460824
2 *1254:X 0.000460824
3 *1542:D *1146:A1 0.000324333
4 *1542:D *1254:B 0
5 *1542:D *1606:D 0.000253175
6 *1542:D *864:34 0.000217028
7 *1542:DE *1542:D 0.000148389
*RES
1 *1254:X *1542:D 40.7473 
*END

*D_NET *295 0.00159894
*CONN
*I *1543:D I *D sky130_fd_sc_hd__edfxtp_1
*I *1255:X O *D sky130_fd_sc_hd__and3_1
*CAP
1 *1543:D 0.000495479
2 *1255:X 0.000495479
3 *1543:D *1026:A0 1.79672e-05
4 *1543:D *1255:C 0
5 *1543:D *1351:B 0.000408506
6 *1543:D *1543:CLK 0.000135252
7 *1543:D *417:469 2.81412e-05
8 *1543:D *888:99 0
9 *1351:A *1543:D 5.20546e-06
10 *126:75 *1543:D 1.13152e-05
11 *126:83 *1543:D 1.59362e-06
*RES
1 *1255:X *1543:D 40.2195 
*END

*D_NET *296 0.00110838
*CONN
*I *1544:D I *D sky130_fd_sc_hd__edfxtp_1
*I *1256:X O *D sky130_fd_sc_hd__and3_1
*CAP
1 *1544:D 0.000308155
2 *1256:X 0.000308155
3 *1544:D *1640:D 0
4 *1544:D *423:169 0.00014439
5 *1544:D *856:149 3.34557e-05
6 *1544:D *867:77 5.48187e-06
7 *1256:A *1544:D 0.000308743
*RES
1 *1256:X *1544:D 34.031 
*END

*D_NET *297 0.000294492
*CONN
*I *1545:D I *D sky130_fd_sc_hd__edfxtp_1
*I *1257:X O *D sky130_fd_sc_hd__and3_1
*CAP
1 *1545:D 0.000106073
2 *1257:X 0.000106073
3 *1545:D *417:526 0
4 *1545:D *887:362 3.44412e-06
5 *1545:D *887:371 4.54832e-05
6 *126:35 *1545:D 3.34188e-05
*RES
1 *1257:X *1545:D 30.5345 
*END

*D_NET *298 0.00211409
*CONN
*I *1546:D I *D sky130_fd_sc_hd__edfxtp_1
*I *1258:X O *D sky130_fd_sc_hd__and3_1
*CAP
1 *1546:D 0.000570985
2 *1258:X 0.000570985
3 *1546:D *1546:CLK 3.6886e-05
4 *1546:D *421:53 0.000104731
5 *1514:DE *1546:D 2.692e-05
6 *22:70 *1546:D 0.000803588
*RES
1 *1258:X *1546:D 43.6294 
*END

*D_NET *299 0.00124571
*CONN
*I *1547:D I *D sky130_fd_sc_hd__edfxtp_1
*I *1259:X O *D sky130_fd_sc_hd__and3_1
*CAP
1 *1547:D 0.000501526
2 *1259:X 0.000501526
3 *1547:D *1259:B 2.99929e-05
4 *1547:D *1547:DE 3.39728e-05
5 *1547:D *1611:CLK 0
6 *1547:D *417:183 7.20368e-05
7 *1547:D *869:16 0.000106657
*RES
1 *1259:X *1547:D 39.4749 
*END

*D_NET *300 0.00137444
*CONN
*I *1548:D I *D sky130_fd_sc_hd__edfxtp_1
*I *1260:X O *D sky130_fd_sc_hd__and3_1
*CAP
1 *1548:D 0.000359432
2 *1260:X 0.000359432
3 *1548:D *1548:DE 8.52404e-05
4 *1548:D *1593:DE 0.000139817
5 *1548:D *856:308 3.20011e-05
6 *1548:D *871:84 0.000258703
7 *1548:D *875:354 0.000139817
*RES
1 *1260:X *1548:D 36.3217 
*END

*D_NET *301 0.00239181
*CONN
*I *1549:D I *D sky130_fd_sc_hd__edfxtp_1
*I *1261:X O *D sky130_fd_sc_hd__and3_1
*CAP
1 *1549:D 0.000683711
2 *1261:X 0.000683711
3 *1549:D *1261:B 0.00011818
4 *1549:D *1549:DE 3.56494e-05
5 *1549:D *858:497 0
6 *1549:D *862:80 0.000132235
7 *1549:D *865:289 0
8 *1549:D *891:62 0.000117609
9 *1549:D *891:66 4.43331e-05
10 *1549:D *891:74 0.000372851
11 *1485:D *1549:D 6.66393e-05
12 *1:13 *1549:D 5.62332e-05
13 *1:48 *1549:D 8.06561e-05
*RES
1 *1261:X *1549:D 49.2976 
*END

*D_NET *302 0.000681362
*CONN
*I *1550:D I *D sky130_fd_sc_hd__edfxtp_1
*I *1262:X O *D sky130_fd_sc_hd__and3_1
*CAP
1 *1550:D 0.000204295
2 *1262:X 0.000204295
3 *1550:D *1262:C 0.000215908
4 *1550:D *1550:CLK 2.29454e-05
5 *1550:D *873:91 3.39182e-05
*RES
1 *1262:X *1550:D 23.9479 
*END

*D_NET *303 0.000584989
*CONN
*I *1551:D I *D sky130_fd_sc_hd__edfxtp_1
*I *1263:X O *D sky130_fd_sc_hd__and3_1
*CAP
1 *1551:D 0.000129389
2 *1263:X 0.000129389
3 *1551:D *1263:B 6.3657e-05
4 *1551:D *418:360 5.34249e-06
5 *1551:D *423:331 3.15447e-05
6 *1551:D *871:19 2.7056e-05
7 *1551:D *880:320 6.09999e-05
8 *1455:D *1551:D 0.00013761
*RES
1 *1263:X *1551:D 31.2579 
*END

*D_NET *304 0.00116783
*CONN
*I *1552:D I *D sky130_fd_sc_hd__edfxtp_1
*I *1264:X O *D sky130_fd_sc_hd__and3_1
*CAP
1 *1552:D 0.000389597
2 *1264:X 0.000389597
3 *1552:D *1020:A2 3.37671e-05
4 *1552:D *1552:DE 3.59042e-05
5 *1552:D *2271:A 0.000126666
6 *1552:D *873:91 5.22654e-06
7 *1552:D *903:190 5.31685e-05
8 *69:206 *1552:D 4.25297e-05
9 *69:212 *1552:D 9.13781e-05
*RES
1 *1264:X *1552:D 38.9147 
*END

*D_NET *305 0.000339495
*CONN
*I *1553:D I *D sky130_fd_sc_hd__edfxtp_1
*I *1265:X O *D sky130_fd_sc_hd__and3_1
*CAP
1 *1553:D 0.000125933
2 *1265:X 0.000125933
3 *1553:D *1265:C 4.15904e-05
4 *1553:D *888:138 0
5 *1553:DE *1553:D 4.60386e-05
*RES
1 *1265:X *1553:D 31.0231 
*END

*D_NET *306 0.000907072
*CONN
*I *1554:D I *D sky130_fd_sc_hd__edfxtp_1
*I *1266:X O *D sky130_fd_sc_hd__and3_1
*CAP
1 *1554:D 0.000351279
2 *1266:X 0.000351279
3 *1554:D *1030:A3 0.000123582
4 *1554:D *1554:DE 3.39728e-05
5 *1554:D *418:97 3.25751e-05
6 *1554:D *894:229 1.43848e-05
*RES
1 *1266:X *1554:D 35.3519 
*END

*D_NET *307 0.00083423
*CONN
*I *1555:D I *D sky130_fd_sc_hd__edfxtp_1
*I *1267:X O *D sky130_fd_sc_hd__and3_1
*CAP
1 *1555:D 0.000190686
2 *1267:X 0.000190686
3 *1555:D *892:176 0.000183544
4 *1555:D *892:178 0.000269315
*RES
1 *1267:X *1555:D 23.9479 
*END

*D_NET *308 0.000963368
*CONN
*I *1556:D I *D sky130_fd_sc_hd__edfxtp_1
*I *1268:X O *D sky130_fd_sc_hd__and3_1
*CAP
1 *1556:D 0.000212628
2 *1268:X 0.000212628
3 *1556:D *424:55 0.00028505
4 *1556:D *424:223 0.000190242
5 *1556:D *865:30 6.28196e-05
*RES
1 *1268:X *1556:D 34.7502 
*END

*D_NET *309 0.00171088
*CONN
*I *1557:D I *D sky130_fd_sc_hd__edfxtp_1
*I *1269:X O *D sky130_fd_sc_hd__and3_1
*CAP
1 *1557:D 0.000755558
2 *1269:X 0.000755558
3 *1557:D *1045:A2 0
4 *1557:D *1173:C 0
5 *1557:D *1557:CLK 0.000168253
6 *1557:D *417:426 0
7 *1557:D *906:121 0
8 *1557:D *906:127 0
9 *1461:D *1557:D 0
10 *1557:DE *1557:D 3.15154e-05
*RES
1 *1269:X *1557:D 46.7294 
*END

*D_NET *310 0.000802564
*CONN
*I *1558:D I *D sky130_fd_sc_hd__edfxtp_1
*I *1270:X O *D sky130_fd_sc_hd__and3_1
*CAP
1 *1558:D 0.00024162
2 *1270:X 0.00024162
3 *1558:D *1270:B 0.000117703
4 *1558:D *1558:DE 6.42482e-05
5 *1558:D *866:23 0.000137374
6 *32:59 *1558:D 0
*RES
1 *1270:X *1558:D 35.1831 
*END

*D_NET *311 0.000700266
*CONN
*I *1559:D I *D sky130_fd_sc_hd__edfxtp_1
*I *1271:X O *D sky130_fd_sc_hd__and3_1
*CAP
1 *1559:D 0.000203635
2 *1271:X 0.000203635
3 *1559:D *1271:B 2.99585e-05
4 *1559:D *1559:CLK 9.91783e-05
5 *1559:D *884:354 0.00016386
*RES
1 *1271:X *1559:D 23.9479 
*END

*D_NET *312 0.000765928
*CONN
*I *1560:D I *D sky130_fd_sc_hd__edfxtp_1
*I *1272:X O *D sky130_fd_sc_hd__and3_1
*CAP
1 *1560:D 0.000206985
2 *1272:X 0.000206985
3 *1560:D *1560:CLK 0.00016553
4 *1560:D *418:207 0.000186429
*RES
1 *1272:X *1560:D 23.9479 
*END

*D_NET *313 0.00250739
*CONN
*I *1561:D I *D sky130_fd_sc_hd__edfxtp_1
*I *1273:X O *D sky130_fd_sc_hd__and3_1
*CAP
1 *1561:D 0.000728488
2 *1273:X 0.000728488
3 *1561:D *2294:A 0
4 *1561:D *871:111 0.000138047
5 *1561:D *890:62 0.000143579
6 *1561:D *890:76 0
7 *1561:D *890:117 0
8 *1561:D *905:22 6.31618e-05
9 *1561:D *905:36 5.41142e-05
10 *1497:DE *1561:D 0.000548393
11 *1498:DE *1561:D 0.000103123
12 *124:123 *1561:D 0
*RES
1 *1273:X *1561:D 48.7644 
*END

*D_NET *314 0.0023908
*CONN
*I *1562:D I *D sky130_fd_sc_hd__edfxtp_1
*I *1274:X O *D sky130_fd_sc_hd__and3_1
*CAP
1 *1562:D 0.000597248
2 *1274:X 0.000597248
3 *1562:D *1070:S0 0.00016802
4 *1562:D *427:482 0.000407803
5 *1562:D *465:24 2.47808e-05
6 *1562:D *876:172 6.50586e-05
7 *1562:D *881:405 0.000117877
8 *1562:D *881:417 0.000178823
9 *1274:A *1562:D 0.000233938
*RES
1 *1274:X *1562:D 43.9365 
*END

*D_NET *315 0.000551338
*CONN
*I *1563:D I *D sky130_fd_sc_hd__edfxtp_1
*I *1275:X O *D sky130_fd_sc_hd__and3_1
*CAP
1 *1563:D 0.000182475
2 *1275:X 0.000182475
3 *1563:D *1075:A3 9.14201e-05
4 *1563:D *487:14 0
5 *1563:DE *1563:D 9.49674e-05
*RES
1 *1275:X *1563:D 32.3632 
*END

*D_NET *316 0.000543955
*CONN
*I *1564:D I *D sky130_fd_sc_hd__edfxtp_1
*I *1276:X O *D sky130_fd_sc_hd__and3_1
*CAP
1 *1564:D 0.00016906
2 *1276:X 0.00016906
3 *1564:D *1212:B 0.000152687
4 *1564:D *1276:C 5.31465e-05
*RES
1 *1276:X *1564:D 24.2975 
*END

*D_NET *317 0.000303522
*CONN
*I *1565:D I *D sky130_fd_sc_hd__edfxtp_1
*I *1277:X O *D sky130_fd_sc_hd__and3_1
*CAP
1 *1565:D 9.64633e-05
2 *1277:X 9.64633e-05
3 *1565:D *1181:B 5.49079e-06
4 *1565:D *1211:B 6.58085e-05
5 *1565:D *876:186 3.92963e-05
*RES
1 *1277:X *1565:D 30.5345 
*END

*D_NET *318 0.00184829
*CONN
*I *1566:D I *D sky130_fd_sc_hd__edfxtp_1
*I *1278:X O *D sky130_fd_sc_hd__and3_1
*CAP
1 *1566:D 0
2 *1278:X 0.000675332
3 *318:24 0.000675332
4 *318:24 *1278:B 3.17869e-05
5 *318:24 *1566:CLK 5.04829e-06
6 *318:24 *418:249 0.00012813
7 *318:24 *874:461 0
8 *318:24 *881:174 3.19278e-05
9 *1214:A *318:24 0.000161956
10 *1502:D *318:24 0.000110458
11 *9:44 *318:24 2.8322e-05
*RES
1 *1278:X *318:24 42.3829 
2 *318:24 *1566:D 9.24915 
*END

*D_NET *319 0.00104606
*CONN
*I *1567:D I *D sky130_fd_sc_hd__edfxtp_1
*I *1279:X O *D sky130_fd_sc_hd__and3_1
*CAP
1 *1567:D 0.000467953
2 *1279:X 0.000467953
3 *1567:D *1567:DE 1.20862e-05
4 *1567:D *424:73 1.79672e-05
5 *1567:D *868:10 7.14746e-05
6 *1567:D *868:14 8.62625e-06
*RES
1 *1279:X *1567:D 36.7398 
*END

*D_NET *320 0.00063522
*CONN
*I *1568:D I *D sky130_fd_sc_hd__edfxtp_1
*I *1280:X O *D sky130_fd_sc_hd__and3_1
*CAP
1 *1568:D 0.000205538
2 *1280:X 0.000205538
3 *1568:D *863:16 0.000224145
*RES
1 *1280:X *1568:D 23.9479 
*END

*D_NET *321 0.00149895
*CONN
*I *1569:D I *D sky130_fd_sc_hd__edfxtp_1
*I *1281:X O *D sky130_fd_sc_hd__and3_1
*CAP
1 *1569:D 0.000495326
2 *1281:X 0.000495326
3 *1569:D *1281:C 9.44631e-06
4 *1569:D *2298:A 1.20478e-05
5 *1569:D *424:278 3.89873e-05
6 *1569:D *893:23 0
7 *1569:D *896:61 7.64398e-05
8 *1120:S1 *1569:D 0.000148566
9 *69:226 *1569:D 0.000222813
*RES
1 *1281:X *1569:D 41.563 
*END

*D_NET *322 0.000772485
*CONN
*I *1570:D I *D sky130_fd_sc_hd__edfxtp_1
*I *1282:X O *D sky130_fd_sc_hd__and3_1
*CAP
1 *1570:D 0.000176029
2 *1282:X 0.000176029
3 *1570:D *1282:B 0.000113096
4 *1570:D *1282:C 0.000160139
5 *1570:D *876:301 0.000115755
6 *124:174 *1570:D 3.14375e-05
*RES
1 *1282:X *1570:D 31.9519 
*END

*D_NET *323 0.000416166
*CONN
*I *1571:D I *D sky130_fd_sc_hd__edfxtp_1
*I *1283:X O *D sky130_fd_sc_hd__and3_1
*CAP
1 *1571:D 0.00014952
2 *1283:X 0.00014952
3 *1571:D *867:16 4.25669e-05
4 *1571:D *867:20 3.44412e-06
5 *1571:D *903:215 3.15919e-05
6 *1571:D *903:230 3.95239e-05
*RES
1 *1283:X *1571:D 31.2579 
*END

*D_NET *324 0.00062776
*CONN
*I *1572:D I *D sky130_fd_sc_hd__edfxtp_1
*I *1284:X O *D sky130_fd_sc_hd__and3_1
*CAP
1 *1572:D 0.00013562
2 *1284:X 0.00013562
3 *1572:D *1203:B 0.00022032
4 *1572:D *1572:DE 0.0001362
*RES
1 *1284:X *1572:D 24.6351 
*END

*D_NET *325 0.0027502
*CONN
*I *1573:D I *D sky130_fd_sc_hd__edfxtp_1
*I *1285:X O *D sky130_fd_sc_hd__and3_1
*CAP
1 *1573:D 0
2 *1285:X 0.00113033
3 *325:14 0.00113033
4 *325:14 *1125:A0 9.68417e-05
5 *325:14 *1125:A1 0
6 *325:14 *1125:A2 0.000183065
7 *325:14 *1127:A1 0.00011127
8 *325:14 *418:431 0
9 *325:14 *418:443 0
10 *124:89 *325:14 6.08467e-05
11 *124:100 *325:14 3.75221e-05
*RES
1 *1285:X *325:14 44.2429 
2 *325:14 *1573:D 9.24915 
*END

*D_NET *326 0.00161748
*CONN
*I *1574:D I *D sky130_fd_sc_hd__edfxtp_1
*I *1286:X O *D sky130_fd_sc_hd__and3_1
*CAP
1 *1574:D 0.000389724
2 *1286:X 0.000389724
3 *1574:D *1130:A2 0.000154609
4 *1574:D *1130:S0 0.000124145
5 *1574:D *418:396 5.49079e-06
6 *1574:D *418:418 6.1096e-05
7 *1574:D *872:86 0.000475779
8 *1574:D *881:525 8.6297e-06
9 *1574:DE *1574:D 0
10 *124:226 *1574:D 8.28675e-06
*RES
1 *1286:X *1574:D 40.9891 
*END

*D_NET *327 0.00219295
*CONN
*I *1575:D I *D sky130_fd_sc_hd__edfxtp_1
*I *1287:X O *D sky130_fd_sc_hd__and3_1
*CAP
1 *1575:D 0.000645013
2 *1287:X 0.000645013
3 *1575:D *1287:B 0.000299071
4 *1575:D *864:67 0.000289788
5 *1575:D *883:131 0.000182179
6 *1575:D *883:180 0.000114659
7 *124:242 *1575:D 1.72312e-05
*RES
1 *1287:X *1575:D 40.82 
*END

*D_NET *328 0.00161979
*CONN
*I *1576:D I *D sky130_fd_sc_hd__edfxtp_1
*I *1288:X O *D sky130_fd_sc_hd__and3_1
*CAP
1 *1576:D 0.000701859
2 *1288:X 0.000701859
3 *1576:D *1192:C 0
4 *1576:D *1576:DE 6.92705e-05
5 *1576:D *874:518 9.72955e-05
6 *1576:D *874:535 4.95013e-05
*RES
1 *1288:X *1576:D 45.1435 
*END

*D_NET *329 0.00222022
*CONN
*I *1577:D I *D sky130_fd_sc_hd__edfxtp_1
*I *1289:X O *D sky130_fd_sc_hd__and3_1
*CAP
1 *1577:D 0.000680653
2 *1289:X 0.000680653
3 *1577:D *1289:B 1.03594e-05
4 *1577:D *876:81 0.000126729
5 *1577:D *887:237 3.12828e-05
6 *1577:D *887:248 0.000492339
7 *1577:D *906:64 6.28701e-05
8 *124:211 *1577:D 0.000135329
*RES
1 *1289:X *1577:D 45.6552 
*END

*D_NET *330 0.00276971
*CONN
*I *1578:D I *D sky130_fd_sc_hd__edfxtp_1
*I *1290:X O *D sky130_fd_sc_hd__and3_1
*CAP
1 *1578:D 0.000641041
2 *1290:X 0.000641041
3 *1578:D *1482:DE 8.36429e-06
4 *1578:D *2276:A 1.65872e-05
5 *1578:D *418:320 0.000288055
6 *1578:D *422:16 2.77625e-06
7 *1578:D *886:164 0.000120596
8 *1578:D *886:176 5.80109e-06
9 *1290:A *1578:D 0.000264586
10 *1386:DE *1578:D 8.62625e-06
11 *1482:D *1578:D 0.000367632
12 *122:29 *1578:D 0.000404599
*RES
1 *1290:X *1578:D 45.2454 
*END

*D_NET *331 0.000884854
*CONN
*I *1579:D I *D sky130_fd_sc_hd__edfxtp_1
*I *1291:X O *D sky130_fd_sc_hd__and3_1
*CAP
1 *1579:D 0.000366163
2 *1291:X 0.000366163
3 *1579:D *418:87 0
4 *1579:D *868:25 1.05374e-05
5 *1579:D *868:27 0.000141991
6 *1579:D *904:36 0
7 *1483:D *1579:D 0
*RES
1 *1291:X *1579:D 35.6892 
*END

*D_NET *332 0.000470679
*CONN
*I *1580:D I *D sky130_fd_sc_hd__edfxtp_1
*I *1292:X O *D sky130_fd_sc_hd__and3_1
*CAP
1 *1580:D 0.000145847
2 *1292:X 0.000145847
3 *1580:D *418:447 2.84236e-05
4 *1580:D *876:133 5.6562e-05
5 *1580:DE *1580:D 3.39728e-05
6 *124:104 *1580:D 6.00269e-05
*RES
1 *1292:X *1580:D 31.7161 
*END

*D_NET *333 0.00033128
*CONN
*I *1581:D I *D sky130_fd_sc_hd__edfxtp_1
*I *1293:X O *D sky130_fd_sc_hd__and3_1
*CAP
1 *1581:D 0.000131576
2 *1293:X 0.000131576
3 *1581:D *859:98 2.41117e-05
4 *1581:D *866:84 4.40158e-05
*RES
1 *1293:X *1581:D 30.8735 
*END

*D_NET *334 0.00292991
*CONN
*I *1582:D I *D sky130_fd_sc_hd__edfxtp_1
*I *1294:X O *D sky130_fd_sc_hd__and3_1
*CAP
1 *1582:D 0
2 *1294:X 0.00118601
3 *334:14 0.00118601
4 *334:14 *1390:DE 4.15551e-05
5 *334:14 *1582:DE 6.82878e-05
6 *334:14 *1614:DE 1.5714e-05
7 *334:14 *857:53 0
8 *334:14 *860:88 0.000142221
9 *334:14 *863:100 7.93945e-05
10 *334:14 *877:21 5.63008e-05
11 *334:14 *893:139 0
12 *334:14 *893:154 0.000154418
*RES
1 *1294:X *334:14 44.3822 
2 *334:14 *1582:D 9.24915 
*END

*D_NET *335 0.00212086
*CONN
*I *1583:D I *D sky130_fd_sc_hd__edfxtp_1
*I *1295:X O *D sky130_fd_sc_hd__and3_1
*CAP
1 *1583:D 0.000615369
2 *1295:X 0.000615369
3 *1583:D *1016:A1 0
4 *1583:D *1016:A3 0.00014142
5 *1583:D *1391:DE 0.000113927
6 *1583:D *427:312 6.27718e-05
7 *1583:D *864:10 4.7798e-05
8 *1583:D *864:20 1.55642e-05
9 *1391:D *1583:D 0.000367843
10 *1583:DE *1583:D 8.41348e-05
11 *23:21 *1583:D 0
12 *125:23 *1583:D 5.6666e-05
*RES
1 *1295:X *1583:D 45.3123 
*END

*D_NET *336 0.00160248
*CONN
*I *1584:D I *D sky130_fd_sc_hd__edfxtp_1
*I *1296:X O *D sky130_fd_sc_hd__and3_1
*CAP
1 *1584:D 0.00045016
2 *1296:X 0.00045016
3 *1584:D *1232:B 7.326e-05
4 *1584:D *1616:D 0
5 *1584:D *2281:A 0
6 *1584:D *857:35 0
7 *1584:D *874:34 0.000335641
8 *1584:D *874:40 0.000158256
9 *1584:D *874:244 3.31424e-05
10 *1584:D *875:44 9.15192e-05
11 *1520:D *1584:D 1.03403e-05
*RES
1 *1296:X *1584:D 40.4566 
*END

*D_NET *337 0.000387502
*CONN
*I *1585:D I *D sky130_fd_sc_hd__edfxtp_1
*I *1297:X O *D sky130_fd_sc_hd__and3_1
*CAP
1 *1585:D 6.77633e-05
2 *1297:X 6.77633e-05
3 *1585:DE *1585:D 9.91963e-05
4 *27:15 *1585:D 0.000152779
*RES
1 *1297:X *1585:D 30.5345 
*END

*D_NET *338 0.00124349
*CONN
*I *1586:D I *D sky130_fd_sc_hd__edfxtp_1
*I *1298:X O *D sky130_fd_sc_hd__and3_1
*CAP
1 *1586:D 0.000439938
2 *1298:X 0.000439938
3 *1586:D *1298:B 0.000110458
4 *1586:D *1586:CLK 9.52181e-06
5 *1586:D *856:42 1.79703e-05
6 *1586:D *857:414 9.11335e-06
7 *28:63 *1586:D 7.92757e-06
8 *28:76 *1586:D 0.000208627
*RES
1 *1298:X *1586:D 38.4061 
*END

*D_NET *339 0.00186702
*CONN
*I *1587:D I *D sky130_fd_sc_hd__edfxtp_1
*I *1299:X O *D sky130_fd_sc_hd__and3_1
*CAP
1 *1587:D 0.000560524
2 *1299:X 0.000560524
3 *1587:D *1235:C 0.000445214
4 *1587:D *1331:B 6.56022e-05
5 *1587:D *874:362 0.000212216
6 *1523:D *1587:D 2.29357e-05
*RES
1 *1299:X *1587:D 41.5932 
*END

*D_NET *340 0.00131135
*CONN
*I *1588:D I *D sky130_fd_sc_hd__edfxtp_1
*I *1300:X O *D sky130_fd_sc_hd__and3_1
*CAP
1 *1588:D 0.00038139
2 *1300:X 0.00038139
3 *1588:D *1300:B 2.16355e-05
4 *1588:D *417:121 3.5333e-05
5 *1588:D *419:39 0.000212838
6 *1588:D *419:61 0.000238954
7 *1588:D *857:363 3.43269e-05
8 *1588:D *873:42 5.48187e-06
9 *1588:D *885:143 0
*RES
1 *1300:X *1588:D 37.902 
*END

*D_NET *341 0.00272147
*CONN
*I *1589:D I *D sky130_fd_sc_hd__edfxtp_1
*I *1301:X O *D sky130_fd_sc_hd__and3_1
*CAP
1 *1589:D 0
2 *1301:X 0.000768432
3 *341:20 0.000768432
4 *341:20 *1045:A1 4.33098e-06
5 *341:20 *1397:CLK 4.34752e-05
6 *341:20 *1589:CLK 0.000130663
7 *341:20 *870:82 0
8 *341:20 *878:154 0
9 *341:20 *889:278 0.000254162
10 *341:20 *889:289 0.000181314
11 *980:A *341:20 0.00013592
12 *1525:D *341:20 8.42598e-05
13 *31:20 *341:20 0.000139435
14 *31:43 *341:20 3.74601e-05
15 *125:97 *341:20 0.00017359
*RES
1 *1301:X *341:20 46.3341 
2 *341:20 *1589:D 9.24915 
*END

*D_NET *342 0.00161626
*CONN
*I *1590:D I *D sky130_fd_sc_hd__edfxtp_1
*I *1302:X O *D sky130_fd_sc_hd__and3_1
*CAP
1 *1590:D 0.000536984
2 *1302:X 0.000536984
3 *1590:D *1174:B 0.000314644
4 *1590:D *2270:A 0
5 *1590:D *857:160 6.68671e-05
6 *1590:D *857:175 8.70942e-05
7 *1590:D *874:418 3.31882e-05
8 *32:31 *1590:D 4.04995e-05
*RES
1 *1302:X *1590:D 41.8621 
*END

*D_NET *343 0.000594274
*CONN
*I *1591:D I *D sky130_fd_sc_hd__edfxtp_1
*I *1303:X O *D sky130_fd_sc_hd__and3_1
*CAP
1 *1591:D 0.00019444
2 *1303:X 0.00019444
3 *1591:D *1591:CLK 0.000138955
4 *1591:D *427:14 6.64392e-05
5 *1591:D *873:14 0
*RES
1 *1303:X *1591:D 31.5969 
*END

*D_NET *344 0.00113602
*CONN
*I *1592:D I *D sky130_fd_sc_hd__edfxtp_1
*I *1304:X O *D sky130_fd_sc_hd__and3_1
*CAP
1 *1592:D 0.000358054
2 *1304:X 0.000358054
3 *1592:D *1592:CLK 0.000200042
4 *1592:D *1619:DE 0.000153225
5 *1592:D *867:67 0
6 *1592:D *874:354 5.22654e-06
7 *1592:D *874:362 6.14128e-05
*RES
1 *1304:X *1592:D 37.5232 
*END

*D_NET *345 0.000698068
*CONN
*I *1593:D I *D sky130_fd_sc_hd__edfxtp_1
*I *1305:X O *D sky130_fd_sc_hd__and3_1
*CAP
1 *1593:D 0.000223432
2 *1305:X 0.000223432
3 *1593:D *1066:S0 6.36477e-05
4 *1593:D *1241:C 2.3339e-05
5 *1593:D *874:312 6.48653e-05
6 *1593:D *875:354 3.81481e-05
7 *1593:D *890:137 1.77894e-05
8 *1593:D *890:139 2.4433e-05
9 *1593:D *890:170 1.89812e-05
*RES
1 *1305:X *1593:D 33.2579 
*END

*D_NET *346 0.00170753
*CONN
*I *1594:D I *D sky130_fd_sc_hd__edfxtp_1
*I *1306:X O *D sky130_fd_sc_hd__and3_1
*CAP
1 *1594:D 0.000536339
2 *1306:X 0.000536339
3 *1594:D *1402:CLK 4.47578e-05
4 *1594:D *1626:CLK 0.000112288
5 *1594:D *1626:D 2.61147e-05
6 *1594:D *864:79 0
7 *1594:D *890:282 0.000167076
8 *1594:DE *1594:D 0.000155118
9 *1597:DE *1594:D 0.000129499
*RES
1 *1306:X *1594:D 40.465 
*END

*D_NET *347 0.00207685
*CONN
*I *1595:D I *D sky130_fd_sc_hd__edfxtp_1
*I *1307:X O *D sky130_fd_sc_hd__and3_1
*CAP
1 *1595:D 0.000627007
2 *1307:X 0.000627007
3 *1595:D *1076:A2 0.000302473
4 *1595:D *1307:B 0.000209283
5 *1595:D *882:320 0.000311081
*RES
1 *1307:X *1595:D 40.82 
*END

*D_NET *348 0.000823046
*CONN
*I *1596:D I *D sky130_fd_sc_hd__edfxtp_1
*I *1308:X O *D sky130_fd_sc_hd__and3_1
*CAP
1 *1596:D 0.00021304
2 *1308:X 0.00021304
3 *1596:D *1009:A2 9.59597e-05
4 *1596:D *1308:B 0.00011818
5 *1596:D *1532:DE 0.000102883
6 *1596:D *1596:DE 3.15154e-05
7 *1308:A *1596:D 4.84271e-05
*RES
1 *1308:X *1596:D 34.7221 
*END

*D_NET *349 0.001636
*CONN
*I *1597:D I *D sky130_fd_sc_hd__edfxtp_1
*I *1309:X O *D sky130_fd_sc_hd__and3_1
*CAP
1 *1597:D 0.000469762
2 *1309:X 0.000469762
3 *1597:D *1597:CLK 0.000134113
4 *1597:D *427:512 2.53624e-06
5 *1597:D *427:524 1.93378e-05
6 *1597:D *874:667 6.61942e-05
7 *1597:D *880:275 9.04668e-05
8 *1597:D *881:433 2.57847e-05
9 *1533:DE *1597:D 0.000164125
10 *8:19 *1597:D 0
11 *8:74 *1597:D 0
12 *8:78 *1597:D 0
13 *126:139 *1597:D 3.88852e-05
14 *285:26 *1597:D 0.000155034
*RES
1 *1309:X *1597:D 41.3676 
*END

*D_NET *350 0.000320069
*CONN
*I *1598:D I *D sky130_fd_sc_hd__edfxtp_1
*I *1310:X O *D sky130_fd_sc_hd__and3_1
*CAP
1 *1598:D 9.16576e-05
2 *1310:X 9.16576e-05
3 *1598:D *1598:DE 7.12632e-06
4 *1598:D *859:77 5.48187e-06
5 *1598:D *874:453 0.000124145
6 *1598:D *903:268 0
*RES
1 *1310:X *1598:D 30.1193 
*END

*D_NET *351 0.00218206
*CONN
*I *1599:D I *D sky130_fd_sc_hd__edfxtp_1
*I *1311:X O *D sky130_fd_sc_hd__and3_1
*CAP
1 *1599:D 0.000493981
2 *1311:X 0.000493981
3 *1599:D *1599:DE 3.44641e-05
4 *1599:D *1631:CLK 5.05252e-05
5 *1599:D *417:153 0.000594813
6 *1599:D *419:71 5.31074e-05
7 *1599:D *419:81 0.00011818
8 *1599:D *857:363 0.000343008
9 *127:47 *1599:D 0
*RES
1 *1311:X *1599:D 42.9686 
*END

*D_NET *352 0.0012447
*CONN
*I *1600:D I *D sky130_fd_sc_hd__edfxtp_1
*I *1312:X O *D sky130_fd_sc_hd__and3_1
*CAP
1 *1600:D 0.000287139
2 *1312:X 0.000287139
3 *1600:D *1600:CLK 0.000222149
4 *1600:D *443:12 7.84221e-05
5 *1600:D *874:261 0.000272148
6 *1536:D *1600:D 9.76996e-05
*RES
1 *1312:X *1600:D 36.9686 
*END

*D_NET *353 0.000567958
*CONN
*I *1601:D I *D sky130_fd_sc_hd__edfxtp_1
*I *1313:X O *D sky130_fd_sc_hd__and3_1
*CAP
1 *1601:D 0.00020595
2 *1313:X 0.00020595
3 *1601:D *1601:CLK 6.78596e-05
4 *1601:D *904:147 8.81975e-05
*RES
1 *1313:X *1601:D 23.9479 
*END

*D_NET *354 0.00145517
*CONN
*I *1602:D I *D sky130_fd_sc_hd__edfxtp_1
*I *1314:X O *D sky130_fd_sc_hd__and3_1
*CAP
1 *1602:D 0.000374043
2 *1314:X 0.000374043
3 *1602:D *1250:B 6.28701e-05
4 *1602:D *1602:CLK 0.0001844
5 *1602:D *427:456 6.63257e-06
6 *1602:D *427:458 2.09892e-05
7 *1602:D *870:88 0.000107496
8 *1346:A *1602:D 2.72533e-05
9 *1410:D *1602:D 0.000177918
10 *14:9 *1602:D 2.08233e-05
11 *14:15 *1602:D 9.87056e-05
*RES
1 *1314:X *1602:D 38.2494 
*END

*D_NET *355 0.0014878
*CONN
*I *1603:D I *D sky130_fd_sc_hd__edfxtp_1
*I *1315:X O *D sky130_fd_sc_hd__and3_1
*CAP
1 *1603:D 0.000370229
2 *1315:X 0.000370229
3 *1603:D *1315:B 0.000410992
4 *1603:D *1603:DE 3.14375e-05
5 *1603:D *860:82 5.34249e-06
6 *1603:D *867:46 0.000144085
7 *1603:D *874:328 0.000147502
8 *1603:D *875:112 7.98425e-06
*RES
1 *1315:X *1603:D 35.6948 
*END

*D_NET *356 0.00120537
*CONN
*I *1604:D I *D sky130_fd_sc_hd__edfxtp_1
*I *1316:X O *D sky130_fd_sc_hd__and3_1
*CAP
1 *1604:D 0.000186812
2 *1316:X 0.000186812
3 *1604:D *1252:B 4.54655e-05
4 *1604:D *1252:C 0.000146645
5 *1604:D *1604:CLK 0.00031772
6 *1252:A *1604:D 0.000321918
7 *1540:D *1604:D 0
8 *16:60 *1604:D 0
*RES
1 *1316:X *1604:D 35.526 
*END

*D_NET *357 0.00137377
*CONN
*I *1605:D I *D sky130_fd_sc_hd__edfxtp_1
*I *1317:X O *D sky130_fd_sc_hd__and3_1
*CAP
1 *1605:D 0.000451756
2 *1317:X 0.000451756
3 *1605:D *996:C 0.000233248
4 *1605:D *1349:C 6.57386e-05
5 *1605:D *1541:DE 0
6 *17:45 *1605:D 0.000171273
7 *17:51 *1605:D 0
*RES
1 *1317:X *1605:D 38.5959 
*END

*D_NET *358 0.00182246
*CONN
*I *1606:D I *D sky130_fd_sc_hd__edfxtp_1
*I *1318:X O *D sky130_fd_sc_hd__and3_1
*CAP
1 *1606:D 0.000486846
2 *1318:X 0.000486846
3 *1606:D *1542:CLK 5.46865e-05
4 *1606:D *1606:CLK 9.14988e-05
5 *1606:D *427:343 0
6 *1606:D *427:366 1.5714e-05
7 *1606:D *878:104 9.50623e-06
8 *1606:D *878:129 1.59362e-06
9 *1542:D *1606:D 0.000253175
10 *1542:DE *1606:D 1.94327e-05
11 *125:54 *1606:D 3.15154e-05
12 *125:71 *1606:D 0.000371644
*RES
1 *1318:X *1606:D 40.6089 
*END

*D_NET *359 0.00251431
*CONN
*I *1607:D I *D sky130_fd_sc_hd__edfxtp_1
*I *1319:X O *D sky130_fd_sc_hd__and3_1
*CAP
1 *1607:D 0.000744619
2 *1319:X 0.000744619
3 *1607:D *1026:S0 0.000338662
4 *1607:D *1639:DE 0.000371587
5 *1607:D *861:86 0
6 *1607:D *864:67 8.86409e-05
7 *1607:D *870:56 8.8179e-05
8 *1607:D *883:180 5.92342e-05
9 *1607:DE *1607:D 3.14375e-05
10 *69:503 *1607:D 4.73256e-05
*RES
1 *1319:X *1607:D 44.4207 
*END

*D_NET *360 0.00086146
*CONN
*I *1608:D I *D sky130_fd_sc_hd__edfxtp_1
*I *1320:X O *D sky130_fd_sc_hd__and3_1
*CAP
1 *1608:D 0.000194112
2 *1320:X 0.000194112
3 *1608:D *418:215 0.000329301
4 *999:A *1608:D 3.13215e-05
5 *1256:A *1608:D 5.49079e-06
6 *20:68 *1608:D 0.000107123
*RES
1 *1320:X *1608:D 34.5894 
*END

*D_NET *361 0.000394711
*CONN
*I *1609:D I *D sky130_fd_sc_hd__edfxtp_1
*I *1321:X O *D sky130_fd_sc_hd__and3_1
*CAP
1 *1609:D 6.95788e-05
2 *1321:X 6.95788e-05
3 *1609:D *1000:C 0.00015324
4 *1609:D *417:526 9.7087e-05
5 *1609:D *417:539 5.22654e-06
*RES
1 *1321:X *1609:D 30.5345 
*END

*D_NET *362 0.00449528
*CONN
*I *1610:D I *D sky130_fd_sc_hd__edfxtp_1
*I *1322:X O *D sky130_fd_sc_hd__and3_1
*CAP
1 *1610:D 0
2 *1322:X 0.00101156
3 *362:14 0.00101156
4 *362:14 *1322:B 0.000306757
5 *362:14 *1418:CLK 4.65119e-05
6 *362:14 *417:63 0.000365511
7 *362:14 *417:67 0.00028775
8 *362:14 *418:30 0
9 *362:14 *875:426 6.24474e-06
10 *362:14 *886:182 0.00016553
11 *362:14 *903:10 0
12 *1514:DE *362:14 2.25343e-05
13 *83:57 *362:14 0.000243837
14 *124:27 *362:14 0.00102749
*RES
1 *1322:X *362:14 46.2636 
2 *362:14 *1610:D 9.24915 
*END

*D_NET *363 0.00179218
*CONN
*I *1611:D I *D sky130_fd_sc_hd__edfxtp_1
*I *1323:X O *D sky130_fd_sc_hd__and3_1
*CAP
1 *1611:D 0.000397436
2 *1323:X 0.000397436
3 *1611:D *417:183 0.000213739
4 *1611:D *419:89 0.000136475
5 *1611:D *857:365 0.000417429
6 *1611:D *869:29 1.07985e-05
7 *1611:D *869:44 0.000108366
8 *1002:A *1611:D 0.000108087
9 *1419:D *1611:D 2.41274e-06
*RES
1 *1323:X *1611:D 40.6778 
*END

*D_NET *364 0.00080832
*CONN
*I *1612:D I *D sky130_fd_sc_hd__edfxtp_1
*I *1324:X O *D sky130_fd_sc_hd__and3_1
*CAP
1 *1612:D 0.000389502
2 *1324:X 0.000389502
3 *1612:D *871:65 0
4 *1612:D *875:330 2.9316e-05
*RES
1 *1324:X *1612:D 35.865 
*END

*D_NET *365 0.00234116
*CONN
*I *1613:D I *D sky130_fd_sc_hd__edfxtp_1
*I *1325:X O *D sky130_fd_sc_hd__and3_1
*CAP
1 *1613:D 0.000399486
2 *1325:X 0.000399486
3 *1613:D *972:B 0.000201532
4 *1613:D *1261:B 0.000160617
5 *1613:D *862:80 0.000715884
6 *1613:D *876:261 7.06545e-05
7 *1325:A *1613:D 0.000118166
8 *1:59 *1613:D 0.000190042
9 *1:68 *1613:D 8.52968e-05
*RES
1 *1325:X *1613:D 44.6727 
*END

*D_NET *366 0.000718236
*CONN
*I *1614:D I *D sky130_fd_sc_hd__edfxtp_1
*I *1326:X O *D sky130_fd_sc_hd__and3_1
*CAP
1 *1614:D 0.000202268
2 *1326:X 0.000202268
3 *1614:D *1326:C 3.60883e-05
4 *1614:D *1614:CLK 6.3657e-05
5 *1614:D *877:29 0.000213956
*RES
1 *1326:X *1614:D 23.9479 
*END

*D_NET *367 0.00111977
*CONN
*I *1615:D I *D sky130_fd_sc_hd__edfxtp_1
*I *1327:X O *D sky130_fd_sc_hd__and3_1
*CAP
1 *1615:D 0.000289864
2 *1327:X 0.000289864
3 *1615:D *1327:C 3.56119e-05
4 *1615:D *1615:CLK 4.31703e-05
5 *1615:D *1615:DE 0.000133166
6 *1231:A *1615:D 0.000308814
7 *1519:D *1615:D 1.92793e-05
*RES
1 *1327:X *1615:D 35.865 
*END

*D_NET *368 0.0018358
*CONN
*I *1616:D I *D sky130_fd_sc_hd__edfxtp_1
*I *1328:X O *D sky130_fd_sc_hd__and3_1
*CAP
1 *1616:D 0.000594709
2 *1328:X 0.000594709
3 *1616:D *1232:B 6.36477e-05
4 *1616:D *1616:CLK 2.11976e-05
5 *1616:D *2281:A 8.36586e-06
6 *1616:D *421:75 0.000352879
7 *1616:D *856:22 9.18611e-05
8 *1616:D *875:44 0
9 *1616:D *879:30 4.63888e-05
10 *1616:D *879:32 6.20469e-05
11 *1584:D *1616:D 0
*RES
1 *1328:X *1616:D 41.2296 
*END

*D_NET *369 0.000458072
*CONN
*I *1617:D I *D sky130_fd_sc_hd__edfxtp_1
*I *1329:X O *D sky130_fd_sc_hd__and3_1
*CAP
1 *1617:D 0.000137047
2 *1329:X 0.000137047
3 *1617:D *1297:C 1.59362e-06
4 *1617:D *1617:DE 6.46815e-05
5 *1617:D *427:404 0.000117703
6 *27:36 *1617:D 0
*RES
1 *1329:X *1617:D 31.3008 
*END

*D_NET *370 0.00133379
*CONN
*I *1618:D I *D sky130_fd_sc_hd__edfxtp_1
*I *1330:X O *D sky130_fd_sc_hd__and3_1
*CAP
1 *1618:D 0.000309901
2 *1330:X 0.000309901
3 *1618:D *419:99 0
4 *1618:D *427:82 0.00037088
5 *1618:D *894:294 0.000171819
6 *1618:D *894:300 0.000171288
*RES
1 *1330:X *1618:D 37.6597 
*END

*D_NET *371 0.000915765
*CONN
*I *1619:D I *D sky130_fd_sc_hd__edfxtp_1
*I *1331:X O *D sky130_fd_sc_hd__and3_1
*CAP
1 *1619:D 0.000357268
2 *1331:X 0.000357268
3 *1619:D *1619:CLK 5.97576e-05
4 *1619:D *893:251 0.000141472
*RES
1 *1331:X *1619:D 26.7209 
*END

*D_NET *372 0.00248256
*CONN
*I *1620:D I *D sky130_fd_sc_hd__edfxtp_1
*I *1332:X O *D sky130_fd_sc_hd__and3_1
*CAP
1 *1620:D 0.000579115
2 *1332:X 0.000579115
3 *1620:D *461:12 0.000840977
4 *1620:D *856:30 0
5 *30:17 *1620:D 0
6 *30:19 *1620:D 0
7 *276:12 *1620:D 0.000483352
*RES
1 *1332:X *1620:D 45.282 
*END

*D_NET *373 0.00309502
*CONN
*I *1621:D I *D sky130_fd_sc_hd__edfxtp_1
*I *1333:X O *D sky130_fd_sc_hd__and3_1
*CAP
1 *1621:D 0.00091646
2 *1333:X 0.00091646
3 *1621:D *1589:CLK 0.000102372
4 *1621:D *464:26 9.37197e-06
5 *1621:D *864:67 0.000347982
6 *1621:D *883:131 0.000632771
7 *31:43 *1621:D 2.29419e-05
8 *126:104 *1621:D 0.000146657
*RES
1 *1333:X *1621:D 48.9912 
*END

*D_NET *374 0.000623204
*CONN
*I *1622:D I *D sky130_fd_sc_hd__edfxtp_1
*I *1334:X O *D sky130_fd_sc_hd__and3_1
*CAP
1 *1622:D 0.000213239
2 *1334:X 0.000213239
3 *1622:D *981:C 0
4 *1622:D *1622:CLK 0.000143579
5 *981:A *1622:D 5.31465e-05
6 *32:35 *1622:D 0
*RES
1 *1334:X *1622:D 32.1515 
*END

*D_NET *375 0.000593543
*CONN
*I *1623:D I *D sky130_fd_sc_hd__edfxtp_1
*I *1335:X O *D sky130_fd_sc_hd__and3_1
*CAP
1 *1623:D 0.000260949
2 *1335:X 0.000260949
3 *1623:D *1623:CLK 6.64392e-05
4 *1623:D *417:109 5.20546e-06
*RES
1 *1335:X *1623:D 23.9479 
*END

*D_NET *376 0.000487985
*CONN
*I *1624:D I *D sky130_fd_sc_hd__edfxtp_1
*I *1336:X O *D sky130_fd_sc_hd__and3_1
*CAP
1 *1624:D 0.000153665
2 *1336:X 0.000153665
3 *1624:D *862:14 0
4 *1624:D *874:414 3.29197e-05
5 *1624:D *892:36 0.000116453
6 *1624:D *892:45 3.12828e-05
*RES
1 *1336:X *1624:D 31.6438 
*END

*D_NET *377 0.00201248
*CONN
*I *1625:D I *D sky130_fd_sc_hd__edfxtp_1
*I *1337:X O *D sky130_fd_sc_hd__and3_1
*CAP
1 *1625:D 0.000883663
2 *1337:X 0.000883663
3 *1625:D *984:C 0
4 *1625:D *1241:C 3.9739e-05
5 *1625:D *1337:C 4.74617e-05
6 *1625:D *1529:DE 1.77213e-05
7 *1625:D *1625:CLK 0
8 *1625:D *856:320 2.79185e-05
9 *1625:D *856:333 2.44829e-05
10 *1625:D *860:58 0
11 *1625:D *862:124 3.57898e-05
12 *1625:D *879:89 4.10737e-05
13 *1625:D *890:141 0
14 *1529:D *1625:D 5.48187e-06
15 *4:27 *1625:D 5.49079e-06
*RES
1 *1337:X *1625:D 43.3115 
*END

*D_NET *378 0.00257942
*CONN
*I *1626:D I *D sky130_fd_sc_hd__edfxtp_1
*I *1338:X O *D sky130_fd_sc_hd__and3_1
*CAP
1 *1626:D 0.000427018
2 *1338:X 0.000427018
3 *1626:D *1306:B 6.83542e-05
4 *1626:D *1626:CLK 0.000368581
5 *1626:D *427:482 6.02075e-05
6 *1626:D *878:184 0.000514791
7 *1306:A *1626:D 0.000171288
8 *1594:D *1626:D 2.61147e-05
9 *5:76 *1626:D 0.00051605
*RES
1 *1338:X *1626:D 46.0522 
*END

*D_NET *379 0.00202669
*CONN
*I *1627:D I *D sky130_fd_sc_hd__edfxtp_1
*I *1339:X O *D sky130_fd_sc_hd__and3_1
*CAP
1 *1627:D 0.000530701
2 *1339:X 0.000530701
3 *1627:D *1075:A0 2.47744e-05
4 *1627:D *1339:B 0.000213509
5 *1627:D *1339:C 0.000124391
6 *1627:D *489:12 0.000126374
7 *1627:D *856:212 0.00021495
8 *1627:D *874:594 9.51287e-05
9 *1627:D *874:633 0.000112595
10 *1531:D *1627:D 5.35603e-05
*RES
1 *1339:X *1627:D 44.3388 
*END

*D_NET *380 0.00097291
*CONN
*I *1628:D I *D sky130_fd_sc_hd__edfxtp_1
*I *1340:X O *D sky130_fd_sc_hd__and3_1
*CAP
1 *1628:D 0.000282396
2 *1340:X 0.000282396
3 *1628:D *1340:B 0.000285537
4 *1628:D *1628:CLK 0.00012258
*RES
1 *1340:X *1628:D 35.8594 
*END

*D_NET *381 0.00195631
*CONN
*I *1629:D I *D sky130_fd_sc_hd__edfxtp_1
*I *1341:X O *D sky130_fd_sc_hd__and3_1
*CAP
1 *1629:D 0.000742665
2 *1341:X 0.000742665
3 *1629:D *1086:A2 7.86847e-05
4 *1629:D *1086:S0 0.000127179
5 *1629:D *1341:C 7.98171e-06
6 *1629:D *1627:DE 0.00019629
7 *1629:D *874:652 6.08467e-05
8 *1629:D *891:366 0
9 *1629:D *891:377 0
10 *1629:D *891:388 0
*RES
1 *1341:X *1629:D 42.8934 
*END

*D_NET *382 0.000548565
*CONN
*I *1630:D I *D sky130_fd_sc_hd__edfxtp_1
*I *1342:X O *D sky130_fd_sc_hd__and3_1
*CAP
1 *1630:D 0.000212434
2 *1342:X 0.000212434
3 *1630:D *1630:CLK 0.000123698
*RES
1 *1342:X *1630:D 23.9479 
*END

*D_NET *383 0.000440967
*CONN
*I *1631:D I *D sky130_fd_sc_hd__edfxtp_1
*I *1343:X O *D sky130_fd_sc_hd__and3_1
*CAP
1 *1631:D 0.000123496
2 *1343:X 0.000123496
3 *1631:D *1631:CLK 9.83892e-05
4 *1631:D *419:61 9.55862e-05
*RES
1 *1343:X *1631:D 30.8735 
*END

*D_NET *384 0.00134232
*CONN
*I *1632:D I *D sky130_fd_sc_hd__edfxtp_1
*I *1344:X O *D sky130_fd_sc_hd__and3_1
*CAP
1 *1632:D 0.000306908
2 *1344:X 0.000306908
3 *1632:D *1344:B 3.21615e-05
4 *1632:D *1408:CLK 0.00015545
5 *1632:D *860:34 3.31736e-05
6 *1632:D *871:46 1.10274e-05
7 *1632:D *871:65 6.46815e-05
8 *1632:D *880:33 5.34249e-06
9 *1632:D *880:41 0.00042667
*RES
1 *1344:X *1632:D 37.902 
*END

*D_NET *385 0.000952813
*CONN
*I *1633:D I *D sky130_fd_sc_hd__edfxtp_1
*I *1345:X O *D sky130_fd_sc_hd__and3_1
*CAP
1 *1633:D 0.000317048
2 *1345:X 0.000317048
3 *1633:D *427:155 7.19347e-05
4 *1633:D *874:99 0.000107078
5 *1537:D *1633:D 0.000139705
*RES
1 *1345:X *1633:D 36.0806 
*END

*D_NET *386 0.00264587
*CONN
*I *1634:D I *D sky130_fd_sc_hd__edfxtp_1
*I *1346:X O *D sky130_fd_sc_hd__and3_1
*CAP
1 *1634:D 0.000575982
2 *1346:X 0.000575982
3 *1634:D *1301:B 0.000160388
4 *1634:D *1634:CLK 2.83154e-05
5 *1634:D *427:456 1.92172e-05
6 *1634:D *880:425 0.000389594
7 *125:97 *1634:D 0.000161951
8 *125:99 *1634:D 0.000734446
*RES
1 *1346:X *1634:D 47.3492 
*END

*D_NET *387 0.00101142
*CONN
*I *1635:D I *D sky130_fd_sc_hd__edfxtp_1
*I *1347:X O *D sky130_fd_sc_hd__and3_1
*CAP
1 *1635:D 0.000384135
2 *1347:X 0.000384135
3 *1635:D *1411:CLK 8.86088e-05
4 *1635:D *1635:CLK 0
5 *1635:D *863:58 8.35289e-05
6 *1635:D *867:20 1.71351e-05
7 *1635:D *867:192 5.49079e-06
8 *1635:D *892:92 5.04829e-06
9 *1635:D *895:27 4.33387e-05
*RES
1 *1347:X *1635:D 36.2438 
*END

*D_NET *388 0.000737705
*CONN
*I *1636:D I *D sky130_fd_sc_hd__edfxtp_1
*I *1348:X O *D sky130_fd_sc_hd__and3_1
*CAP
1 *1636:D 0.000303506
2 *1348:X 0.000303506
3 *1636:D *1636:DE 0.000130694
4 *1636:D *877:84 0
5 *995:A *1636:D 0
*RES
1 *1348:X *1636:D 34.9658 
*END

*D_NET *389 0.000541152
*CONN
*I *1637:D I *D sky130_fd_sc_hd__edfxtp_1
*I *1349:X O *D sky130_fd_sc_hd__and3_1
*CAP
1 *1637:D 0.000223119
2 *1349:X 0.000223119
3 *1637:D *1349:C 3.06647e-05
4 *1637:D *1637:DE 6.42482e-05
*RES
1 *1349:X *1637:D 32.9647 
*END

*D_NET *390 0.00236812
*CONN
*I *1638:D I *D sky130_fd_sc_hd__edfxtp_1
*I *1350:X O *D sky130_fd_sc_hd__and3_1
*CAP
1 *1638:D 0.000495128
2 *1350:X 0.000495128
3 *1638:D *1606:CLK 0.000128405
4 *1638:D *1638:CLK 4.05645e-06
5 *1638:D *427:343 2.95613e-05
6 *1638:D *427:366 0.000294939
7 *1638:D *864:34 0.000147059
8 *1350:A *1638:D 0.00025527
9 *126:50 *1638:D 0.000518578
*RES
1 *1350:X *1638:D 31.8811 
*END

*D_NET *391 0.00133024
*CONN
*I *1639:D I *D sky130_fd_sc_hd__edfxtp_1
*I *1351:X O *D sky130_fd_sc_hd__and3_1
*CAP
1 *1639:D 0.000665118
2 *1351:X 0.000665118
*RES
1 *1351:X *1639:D 39.5714 
*END

*D_NET *392 0.00212739
*CONN
*I *1640:D I *D sky130_fd_sc_hd__edfxtp_1
*I *1352:X O *D sky130_fd_sc_hd__and3_1
*CAP
1 *1640:D 0.000548244
2 *1352:X 0.000548244
3 *1640:D *1352:C 7.85066e-05
4 *1640:D *418:215 0.00022768
5 *1640:D *423:169 0
6 *1640:D *862:43 3.14375e-05
7 *1640:D *875:189 0.000145547
8 *1640:D *875:211 0.000363154
9 *1640:D *892:143 9.01124e-06
10 *1544:D *1640:D 0
11 *20:42 *1640:D 1.07248e-05
12 *20:55 *1640:D 0.000164843
*RES
1 *1352:X *1640:D 44.1577 
*END

*D_NET *393 0.00200839
*CONN
*I *1641:D I *D sky130_fd_sc_hd__edfxtp_1
*I *1353:X O *D sky130_fd_sc_hd__and3_1
*CAP
1 *1641:D 0.000426343
2 *1353:X 0.000426343
3 *1641:D *1146:A2 3.17089e-05
4 *1641:D *1350:C 0.000114659
5 *1641:D *1417:DE 0
6 *1641:D *417:512 0.000654288
7 *1641:D *861:44 0
8 *1641:D *864:34 6.56482e-05
9 *1641:D *878:68 9.25028e-05
10 *1641:D *878:83 0.000178051
11 *1641:D *878:104 1.88422e-05
*RES
1 *1353:X *1641:D 42.8962 
*END

*D_NET *394 0.00208437
*CONN
*I *1642:D I *D sky130_fd_sc_hd__edfxtp_1
*I *1354:X O *D sky130_fd_sc_hd__and3_1
*CAP
1 *1642:D 0.000855544
2 *1354:X 0.000855544
3 *1642:D *1354:C 0.000107496
4 *1642:D *1642:CLK 6.50586e-05
5 *1642:D *906:10 0.000156601
6 *123:122 *1642:D 4.41269e-05
*RES
1 *1354:X *1642:D 34.0995 
*END

*D_NET *395 0.00131554
*CONN
*I *1643:D I *D sky130_fd_sc_hd__edfxtp_1
*I *1355:X O *D sky130_fd_sc_hd__and3_1
*CAP
1 *1643:D 0.000318693
2 *1355:X 0.000318693
3 *1643:D *553:14 0.000189891
4 *1643:D *857:365 0.000488266
5 *127:53 *1643:D 0
*RES
1 *1355:X *1643:D 38.0722 
*END

*D_NET *396 0.00296226
*CONN
*I *1644:D I *D sky130_fd_sc_hd__edfxtp_1
*I *1356:X O *D sky130_fd_sc_hd__and3_1
*CAP
1 *1644:D 0
2 *1356:X 0.000794746
3 *396:22 0.000794746
4 *396:22 *1356:C 6.88791e-05
5 *396:22 *1593:DE 0.000474663
6 *396:22 *1644:CLK 0
7 *396:22 *1644:DE 0.000137121
8 *396:22 *856:308 0.000316534
9 *396:22 *856:320 0.000158451
10 *396:22 *857:277 5.71561e-05
11 *396:22 *857:319 0.000159959
*RES
1 *1356:X *396:22 49.9671 
2 *396:22 *1644:D 9.24915 
*END

*D_NET *397 0.000616531
*CONN
*I *1645:D I *D sky130_fd_sc_hd__edfxtp_1
*I *1357:X O *D sky130_fd_sc_hd__and2_0
*CAP
1 *1645:D 0.000207742
2 *1357:X 0.000207742
3 *1645:D *1092:A1 0
4 *1645:D *1645:CLK 3.30508e-05
5 *1645:D *418:249 0.000167996
*RES
1 *1357:X *1645:D 32.753 
*END

*D_NET *398 0.00130164
*CONN
*I *1646:D I *D sky130_fd_sc_hd__edfxtp_1
*I *1358:X O *D sky130_fd_sc_hd__and2_0
*CAP
1 *1646:D 0.000315645
2 *1358:X 0.000315645
3 *1646:D *418:60 2.85865e-05
4 *1646:D *858:157 9.17835e-05
5 *1646:D *858:165 7.33113e-05
6 *1486:D *1646:D 3.23152e-05
7 *12:17 *1646:D 0.000160179
8 *12:26 *1646:D 0.000171811
9 *12:30 *1646:D 0.000112367
*RES
1 *1358:X *1646:D 36.3161 
*END

*D_NET *399 0.000956517
*CONN
*I *1647:D I *D sky130_fd_sc_hd__edfxtp_1
*I *1359:X O *D sky130_fd_sc_hd__and2_0
*CAP
1 *1647:D 0.000267989
2 *1359:X 0.000267989
3 *1647:D *880:12 9.68437e-05
4 *1647:DE *1647:D 0.000323695
*RES
1 *1359:X *1647:D 35.3104 
*END

*D_NET *400 0.00209144
*CONN
*I *1648:D I *D sky130_fd_sc_hd__edfxtp_1
*I *1360:X O *D sky130_fd_sc_hd__and2_0
*CAP
1 *1648:D 0.0006
2 *1360:X 0.0006
3 *1648:D *1040:A2 0
4 *1648:D *1360:B 6.08467e-05
5 *1648:D *1648:CLK 0.000133144
6 *1648:D *423:42 0.000266846
7 *1648:D *424:223 0.000199199
8 *1648:D *858:173 1.5714e-05
9 *1360:A *1648:D 0.00021569
10 *68:104 *1648:D 0
*RES
1 *1360:X *1648:D 44.0657 
*END

*D_NET *401 0.000569965
*CONN
*I *1649:D I *D sky130_fd_sc_hd__edfxtp_1
*I *1361:X O *D sky130_fd_sc_hd__and2_0
*CAP
1 *1649:D 0.000121572
2 *1361:X 0.000121572
3 *1649:D *1649:CLK 2.75521e-05
4 *1649:D *1649:DE 0.000127805
5 *1649:D *858:402 3.02567e-05
6 *1649:D *888:219 0
7 *27:44 *1649:D 0.000141208
*RES
1 *1361:X *1649:D 31.6438 
*END

*D_NET *402 0.00287327
*CONN
*I *1650:D I *D sky130_fd_sc_hd__edfxtp_1
*I *1362:X O *D sky130_fd_sc_hd__and2_0
*CAP
1 *1650:D 0
2 *1362:X 0.00109739
3 *402:14 0.00109739
4 *402:14 *423:94 4.61271e-05
5 *402:14 *423:104 6.55265e-05
6 *402:14 *427:130 0.000190683
7 *402:14 *858:219 0
8 *402:14 *894:173 0.000143579
9 *127:53 *402:14 0.000227524
10 *128:56 *402:14 5.04829e-06
*RES
1 *1362:X *402:14 40.775 
2 *402:14 *1650:D 9.24915 
*END

*D_NET *403 0.000642381
*CONN
*I *1651:D I *D sky130_fd_sc_hd__edfxtp_1
*I *1363:X O *D sky130_fd_sc_hd__and2_0
*CAP
1 *1651:D 0.000227827
2 *1363:X 0.000227827
3 *1651:D *1363:B 0.000120605
4 *1651:D *1651:DE 6.61218e-05
*RES
1 *1363:X *1651:D 32.5788 
*END

*D_NET *404 0.00200108
*CONN
*I *1652:D I *D sky130_fd_sc_hd__edfxtp_1
*I *1364:X O *D sky130_fd_sc_hd__and2_0
*CAP
1 *1652:D 0.000365729
2 *1364:X 0.000365729
3 *1652:D *1042:A1 2.75475e-05
4 *1652:D *1492:CLK 0.000365108
5 *1204:A *1652:D 0.000170775
6 *1364:A *1652:D 3.00829e-05
7 *30:64 *1652:D 0.000435752
8 *30:68 *1652:D 9.78334e-05
9 *70:40 *1652:D 5.66399e-06
10 *70:44 *1652:D 0.000136855
*RES
1 *1364:X *1652:D 42.3332 
*END

*D_NET *405 0.000263487
*CONN
*I *1653:D I *D sky130_fd_sc_hd__edfxtp_1
*I *1365:X O *D sky130_fd_sc_hd__and2_0
*CAP
1 *1653:D 9.16087e-05
2 *1365:X 9.16087e-05
3 *1653:D *1378:DE 5.39635e-06
4 *1653:D *1653:CLK 3.17619e-05
5 *1653:D *858:406 3.87963e-05
6 *1653:D *858:408 4.31485e-06
*RES
1 *1365:X *1653:D 30.1193 
*END

*D_NET *406 0.000736111
*CONN
*I *1654:D I *D sky130_fd_sc_hd__edfxtp_1
*I *1366:X O *D sky130_fd_sc_hd__and2_0
*CAP
1 *1654:D 0.000120591
2 *1366:X 0.000120591
3 *1654:D *1654:DE 0.000137987
4 *1654:D *423:167 0.000311356
5 *1366:A *1654:D 4.55853e-05
*RES
1 *1366:X *1654:D 23.3692 
*END

*D_NET *407 0.00187033
*CONN
*I *1655:D I *D sky130_fd_sc_hd__edfxtp_1
*I *1367:X O *D sky130_fd_sc_hd__and2_0
*CAP
1 *1655:D 0.000365907
2 *1367:X 0.000365907
3 *1655:D *1655:DE 3.42041e-05
4 *1655:D *424:53 0.00050598
5 *1655:D *856:22 2.58616e-05
6 *1655:D *884:339 0.000298617
7 *1655:D *884:354 0.000214474
8 *1056:S0 *1655:D 5.93747e-05
*RES
1 *1367:X *1655:D 40.7473 
*END

*D_NET *408 0.00161504
*CONN
*I *1656:D I *D sky130_fd_sc_hd__edfxtp_1
*I *1368:X O *D sky130_fd_sc_hd__and2_0
*CAP
1 *1656:D 0.000616517
2 *1368:X 0.000616517
3 *1656:D *423:146 3.91901e-05
4 *1656:D *856:130 0
5 *1656:D *858:28 0.00013419
6 *1368:A *1656:D 0.000208621
*RES
1 *1368:X *1656:D 39.5714 
*END

*D_NET *409 0.00164697
*CONN
*I *1657:D I *D sky130_fd_sc_hd__edfxtp_1
*I *1369:X O *D sky130_fd_sc_hd__and2_0
*CAP
1 *1657:D 0.000331599
2 *1369:X 0.000331599
3 *1657:D *1050:S0 1.20108e-05
4 *1657:D *1067:A0 0.000310519
5 *1657:D *1465:CLK 1.59362e-06
6 *1657:D *481:14 7.86825e-06
7 *1657:D *890:76 3.82417e-05
8 *1657:D *890:117 4.78735e-05
9 *1657:D *890:123 2.59418e-05
10 *1369:A *1657:D 0.000539721
11 *4:82 *1657:D 0
*RES
1 *1369:X *1657:D 40.5006 
*END

*D_NET *410 0.000279845
*CONN
*I *1658:D I *D sky130_fd_sc_hd__edfxtp_1
*I *1370:X O *D sky130_fd_sc_hd__and2_0
*CAP
1 *1658:D 8.42585e-05
2 *1370:X 8.42585e-05
3 *1658:D *1658:DE 3.15154e-05
4 *1658:D *418:461 2.85637e-05
5 *1658:D *423:381 5.12484e-05
*RES
1 *1370:X *1658:D 30.1193 
*END

*D_NET *411 0.000481685
*CONN
*I *1659:D I *D sky130_fd_sc_hd__edfxtp_1
*I *1371:X O *D sky130_fd_sc_hd__and2_0
*CAP
1 *1659:D 0.000141196
2 *1371:X 0.000141196
3 *1659:D *858:480 3.15154e-05
4 *1659:D *874:583 1.83992e-05
5 *1659:D *876:242 0
6 *1659:D *881:259 0.000149379
*RES
1 *1371:X *1659:D 31.2579 
*END

*D_NET *412 0.00244163
*CONN
*I *1660:D I *D sky130_fd_sc_hd__edfxtp_1
*I *1372:X O *D sky130_fd_sc_hd__and2_0
*CAP
1 *1660:D 0.00109104
2 *1372:X 0.00109104
3 *1660:D *1081:A3 2.17133e-05
4 *1660:D *1660:DE 9.42582e-05
5 *1660:D *894:41 0.000143579
*RES
1 *1372:X *1660:D 47.8058 
*END

*D_NET *413 0.00030479
*CONN
*I *1661:D I *D sky130_fd_sc_hd__edfxtp_1
*I *1373:X O *D sky130_fd_sc_hd__and2_0
*CAP
1 *1661:D 7.44372e-05
2 *1373:X 7.44372e-05
3 *1661:D *858:470 0.000122858
4 *1501:D *1661:D 3.30578e-05
*RES
1 *1373:X *1661:D 30.1193 
*END

*D_NET *414 0.000898771
*CONN
*I *1662:D I *D sky130_fd_sc_hd__edfxtp_1
*I *1374:X O *D sky130_fd_sc_hd__and2_0
*CAP
1 *1662:D 0.000253811
2 *1374:X 0.000253811
3 *1662:D *1662:CLK 0.000143579
4 *1662:D *1662:DE 0
5 *1662:D *874:501 7.48797e-05
6 *9:13 *1662:D 0.000172691
*RES
1 *1374:X *1662:D 33.9519 
*END

*D_NET *415 0.00220587
*CONN
*I *1663:D I *D sky130_fd_sc_hd__edfxtp_1
*I *1375:X O *D sky130_fd_sc_hd__and2_0
*CAP
1 *1663:D 0.000507161
2 *1375:X 0.000507161
3 *1663:D *1097:A0 3.31745e-05
4 *1663:D *1663:CLK 5.0402e-05
5 *1663:D *503:18 6.93171e-05
6 *1663:D *505:16 0.000307799
7 *1663:D *858:197 0.000611205
8 *68:239 *1663:D 0.000119653
*RES
1 *1375:X *1663:D 41.7898 
*END

*D_NET *416 0.00116051
*CONN
*I *1664:D I *D sky130_fd_sc_hd__edfxtp_1
*I *1376:X O *D sky130_fd_sc_hd__and2_0
*CAP
1 *1664:D 0.000184168
2 *1376:X 0.000184168
3 *1664:D *1664:CLK 6.27718e-05
4 *1664:D *858:324 0.000147623
5 *1664:D *880:29 0.000289151
6 *1664:D *887:79 0.000292628
*RES
1 *1376:X *1664:D 35.3048 
*END

*D_NET *417 0.118741
*CONN
*I *951:A I *D sky130_fd_sc_hd__nand2_1
*I *1167:B I *D sky130_fd_sc_hd__and3_1
*I *1193:B I *D sky130_fd_sc_hd__and3_1
*I *1191:B I *D sky130_fd_sc_hd__and3_1
*I *1319:B I *D sky130_fd_sc_hd__and3_1
*I *1351:B I *D sky130_fd_sc_hd__and3_1
*I *1329:B I *D sky130_fd_sc_hd__and3_1
*I *1297:B I *D sky130_fd_sc_hd__and3_1
*I *1318:B I *D sky130_fd_sc_hd__and3_1
*I *1350:B I *D sky130_fd_sc_hd__and3_1
*I *1353:B I *D sky130_fd_sc_hd__and3_1
*I *1295:B I *D sky130_fd_sc_hd__and3_1
*I *1327:B I *D sky130_fd_sc_hd__and3_1
*I *1321:B I *D sky130_fd_sc_hd__and3_1
*I *1190:B I *D sky130_fd_sc_hd__and3_1
*I *1169:B I *D sky130_fd_sc_hd__and3_1
*I *1333:B I *D sky130_fd_sc_hd__and3_1
*I *1173:B I *D sky130_fd_sc_hd__and3_1
*I *1301:B I *D sky130_fd_sc_hd__and3_1
*I *1346:B I *D sky130_fd_sc_hd__and3_1
*I *1186:B I *D sky130_fd_sc_hd__and3_1
*I *1314:B I *D sky130_fd_sc_hd__and3_1
*I *1196:B I *D sky130_fd_sc_hd__and3_1
*I *1189:B I *D sky130_fd_sc_hd__and3_1
*I *1349:B I *D sky130_fd_sc_hd__and3_1
*I *1317:B I *D sky130_fd_sc_hd__and3_1
*I *1184:B I *D sky130_fd_sc_hd__and3_1
*I *943:A I *D sky130_fd_sc_hd__nand2_1
*I *956:A I *D sky130_fd_sc_hd__nand2_1
*I *1194:B I *D sky130_fd_sc_hd__and3_1
*I *2278:A I *D sky130_fd_sc_hd__buf_12
*I *1175:B I *D sky130_fd_sc_hd__and3_1
*I *1303:B I *D sky130_fd_sc_hd__and3_1
*I *1300:B I *D sky130_fd_sc_hd__and3_1
*I *1355:B I *D sky130_fd_sc_hd__and3_1
*I *1298:B I *D sky130_fd_sc_hd__and3_1
*I *1330:B I *D sky130_fd_sc_hd__and3_1
*I *1308:B I *D sky130_fd_sc_hd__and3_1
*I *1340:B I *D sky130_fd_sc_hd__and3_1
*I *1323:B I *D sky130_fd_sc_hd__and3_1
*I *1311:B I *D sky130_fd_sc_hd__and3_1
*I *1343:B I *D sky130_fd_sc_hd__and3_1
*I *1332:B I *D sky130_fd_sc_hd__and3_1
*I *1335:B I *D sky130_fd_sc_hd__and3_1
*I *1322:B I *D sky130_fd_sc_hd__and3_1
*I *940:C I *D sky130_fd_sc_hd__and3_1
*I *939:X O *D sky130_fd_sc_hd__and4b_4
*CAP
1 *951:A 3.7262e-05
2 *1167:B 0
3 *1193:B 0.000271443
4 *1191:B 0.00012458
5 *1319:B 8.88952e-05
6 *1351:B 0.000737355
7 *1329:B 0
8 *1297:B 0
9 *1318:B 0
10 *1350:B 0
11 *1353:B 0
12 *1295:B 0
13 *1327:B 0.00034927
14 *1321:B 0
15 *1190:B 0.000711983
16 *1169:B 0.000321681
17 *1333:B 0.000930697
18 *1173:B 0
19 *1301:B 0.000376278
20 *1346:B 0
21 *1186:B 0.000101485
22 *1314:B 0.000667186
23 *1196:B 0.0013674
24 *1189:B 0
25 *1349:B 0
26 *1317:B 0
27 *1184:B 0
28 *943:A 0.000409555
29 *956:A 0
30 *1194:B 0
31 *2278:A 0
32 *1175:B 0
33 *1303:B 0
34 *1300:B 0.000117223
35 *1355:B 0.000209531
36 *1298:B 7.63073e-05
37 *1330:B 4.85009e-05
38 *1308:B 0.000155714
39 *1340:B 0.000191037
40 *1323:B 4.90937e-05
41 *1311:B 5.84288e-05
42 *1343:B 0.000120193
43 *1332:B 0.000407232
44 *1335:B 5.62353e-05
45 *1322:B 0.000140126
46 *940:C 0
47 *939:X 0.00100611
48 *417:539 0.00182452
49 *417:526 0.00202944
50 *417:512 0.00125041
51 *417:497 0.00163746
52 *417:495 0.000820809
53 *417:489 0.0023229
54 *417:487 0.00209023
55 *417:477 0.00109063
56 *417:469 0.00170466
57 *417:465 0.000902901
58 *417:461 0.0018461
59 *417:444 0.00184928
60 *417:430 0.000986372
61 *417:426 0.000613623
62 *417:402 0.00164705
63 *417:363 0.00221228
64 *417:355 0.000344798
65 *417:353 0.00212713
66 *417:351 0.00311872
67 *417:342 0.0025383
68 *417:335 0.000698819
69 *417:328 0.00103145
70 *417:322 0.0022427
71 *417:313 0.00172991
72 *417:307 0.00181352
73 *417:279 0.000674671
74 *417:275 0.00237819
75 *417:268 0.00113
76 *417:195 0.000953616
77 *417:193 0.000867668
78 *417:191 0.000938411
79 *417:183 0.00124528
80 *417:168 0.00087572
81 *417:153 0.000725459
82 *417:138 0.00181274
83 *417:121 0.00211773
84 *417:109 0.00123523
85 *417:92 0.000973045
86 *417:86 0.00190856
87 *417:84 0.00269677
88 *417:67 0.00108773
89 *417:63 0.000438492
90 *417:57 0.00116721
91 *417:51 0.00179358
92 *417:20 0.00244095
93 *417:14 0.00218032
94 *943:A *943:B 6.50586e-05
95 *943:A *1150:A2 0.00013116
96 *943:A *823:12 1.84293e-05
97 *943:A *857:14 0.000169943
98 *1169:B *876:357 1.73447e-06
99 *1169:B *876:368 5.04576e-05
100 *1169:B *876:410 5.20546e-06
101 *1190:B *1146:A0 1.6352e-05
102 *1190:B *544:14 0
103 *1190:B *872:84 0.000294474
104 *1191:B *876:414 7.89102e-06
105 *1193:B *1100:S0 4.97926e-05
106 *1193:B *858:337 8.01565e-05
107 *1193:B *887:237 6.39615e-05
108 *1193:B *887:248 4.74259e-05
109 *1196:B *1162:A1 0.000136092
110 *1196:B *1506:CLK 4.89392e-05
111 *1196:B *880:156 0.000180874
112 *1196:B *880:173 0.00011475
113 *1300:B *427:31 1.49644e-05
114 *1300:B *427:41 1.08342e-05
115 *1301:B *1045:S0 0.000107496
116 *1301:B *1346:C 4.66375e-06
117 *1301:B *427:442 0.000107643
118 *1301:B *427:456 0.000652413
119 *1301:B *880:425 0.000566595
120 *1314:B *1110:A3 0.000376303
121 *1314:B *427:472 0.000159038
122 *1319:B *427:421 3.82228e-05
123 *1327:B *427:301 0.000139188
124 *1332:B *1332:C 1.25565e-05
125 *1332:B *869:10 0.000170184
126 *1335:B *1335:C 6.73917e-07
127 *1340:B *1340:C 0
128 *1340:B *1628:CLK 8.92568e-06
129 *1340:B *894:57 1.83992e-05
130 *1351:B *1026:S0 6.23875e-05
131 *1351:B *1255:C 3.28798e-05
132 *1351:B *1351:C 8.02814e-06
133 *1351:B *1639:CLK 0
134 *1351:B *888:99 0
135 *417:14 *934:CLK 0
136 *417:20 *934:CLK 0.0010016
137 *417:51 *1683:A 2.30636e-05
138 *417:51 *418:16 0.000201719
139 *417:51 *421:51 0
140 *417:51 *820:6 0.000234888
141 *417:63 *418:30 0
142 *417:67 *875:426 3.40176e-05
143 *417:84 *1057:A1 0.000795797
144 *417:84 *421:51 7.91094e-05
145 *417:84 *421:53 0.000222714
146 *417:84 *421:67 0.0002236
147 *417:86 *1057:A0 7.92757e-06
148 *417:86 *1057:A1 0.000745171
149 *417:86 *1059:A2 0.000266064
150 *417:86 *1303:C 3.81734e-06
151 *417:86 *427:14 0.000161742
152 *417:92 *427:25 6.93171e-05
153 *417:109 *1524:CLK 0
154 *417:109 *1524:DE 8.802e-05
155 *417:109 *419:28 7.23587e-06
156 *417:109 *427:25 0.000588889
157 *417:109 *427:31 0.000333313
158 *417:109 *857:353 0
159 *417:109 *873:16 0.000429175
160 *417:109 *873:24 0.00021612
161 *417:109 *885:135 0
162 *417:109 *885:143 0
163 *417:121 *1588:CLK 0.000238107
164 *417:121 *419:28 8.85931e-05
165 *417:121 *419:39 0.000199375
166 *417:121 *419:61 0.000104025
167 *417:121 *427:41 2.47378e-05
168 *417:121 *885:143 0
169 *417:138 *1332:C 5.20546e-06
170 *417:138 *898:25 8.03859e-05
171 *417:138 *898:66 0.000207693
172 *417:153 *990:C 2.85719e-05
173 *417:153 *1631:CLK 3.60268e-05
174 *417:153 *884:92 0.000110306
175 *417:153 *884:98 0.000107496
176 *417:168 *427:64 0.00142131
177 *417:168 *869:14 6.43474e-05
178 *417:168 *869:16 0.00139887
179 *417:183 *1259:B 0
180 *417:183 *1611:CLK 6.68103e-05
181 *417:183 *419:95 0.000119538
182 *417:191 *427:74 0.000380157
183 *417:191 *427:76 5.52855e-05
184 *417:191 *430:400 0
185 *417:191 *430:406 0
186 *417:191 *856:42 0
187 *417:193 *427:76 4.2748e-05
188 *417:193 *427:82 0.000108286
189 *417:195 *1340:C 0
190 *417:195 *419:99 0
191 *417:195 *427:82 0.000225547
192 *417:195 *427:88 0
193 *417:268 *969:B 0.000115599
194 *417:268 *418:320 4.41269e-05
195 *417:275 *418:320 0.000241341
196 *417:279 *1150:A2 0.000389042
197 *417:279 *857:14 0.000574767
198 *417:307 *418:320 0.000399945
199 *417:307 *418:326 0.000144531
200 *417:307 *876:10 0.000116439
201 *417:307 *876:12 8.88627e-05
202 *417:307 *880:29 0.000257426
203 *417:313 *1184:C 2.05014e-05
204 *417:313 *876:12 0.000439903
205 *417:313 *880:29 0.000443247
206 *417:322 *1184:C 5.99499e-07
207 *417:328 *1100:S0 0.000183886
208 *417:328 *1317:C 2.60827e-05
209 *417:351 *1125:A3 3.72756e-05
210 *417:351 *1189:C 2.18041e-06
211 *417:351 *1509:CLK 3.6455e-05
212 *417:351 *888:257 0.000472818
213 *417:353 *1378:DE 0
214 *417:353 *1557:CLK 0
215 *417:353 *418:518 1.91246e-05
216 *417:353 *418:537 0
217 *417:353 *858:406 0
218 *417:355 *1378:DE 0
219 *417:355 *418:537 0
220 *417:363 *1378:DE 7.87135e-05
221 *417:402 *1346:C 7.8568e-06
222 *417:426 *1173:C 0.00012998
223 *417:426 *858:406 0
224 *417:444 *1025:A1 3.58625e-05
225 *417:444 *1173:C 0.000144659
226 *417:444 *876:376 0.00052612
227 *417:444 *876:410 9.72667e-05
228 *417:461 *1025:A1 1.78895e-05
229 *417:461 *1025:A2 9.58287e-05
230 *417:461 *1027:A1 0.000195605
231 *417:461 *876:410 0.000100739
232 *417:461 *876:414 3.45649e-05
233 *417:465 *427:431 2.96137e-05
234 *417:465 *878:148 0
235 *417:469 *1255:C 8.62582e-05
236 *417:469 *888:86 0
237 *417:477 *1543:CLK 5.04829e-06
238 *417:477 *870:27 0.000112361
239 *417:477 *870:35 1.65872e-05
240 *417:477 *878:142 0.00102316
241 *417:487 *976:C 0.000104676
242 *417:487 *1297:C 0.000256408
243 *417:487 *1393:CLK 0.000373061
244 *417:489 *1131:A0 1.87117e-05
245 *417:489 *1393:CLK 1.65872e-05
246 *417:489 *1414:DE 3.37073e-06
247 *417:489 *1542:CLK 0.000252372
248 *417:495 *1146:A0 0.000111216
249 *417:495 *1318:C 2.1228e-06
250 *417:495 *1542:CLK 5.04829e-06
251 *417:495 *427:333 2.05814e-05
252 *417:495 *864:34 0
253 *417:497 *1146:A0 7.07407e-05
254 *417:497 *864:34 0
255 *417:512 *878:57 2.12556e-06
256 *417:512 *878:68 1.5934e-05
257 *417:512 *878:104 8.06067e-05
258 *417:526 *1000:C 0.000161314
259 *417:526 *1609:CLK 0
260 *417:526 *427:316 0.000173401
261 *417:526 *872:153 0.000390185
262 *417:526 *878:57 1.21461e-06
263 *417:526 *887:362 0
264 *417:526 *887:371 0
265 *417:539 *1000:C 5.99658e-05
266 *417:539 *427:301 4.47125e-06
267 *417:539 *427:312 0.000485238
268 *417:539 *427:316 9.14154e-05
269 *923:A *417:14 0
270 *925:B *417:14 0
271 *925:B *417:20 0.000113197
272 *928:B *417:51 3.55179e-05
273 *930:B *417:20 2.18523e-06
274 *934:D *417:20 0.000110833
275 *936:D *417:51 6.46815e-05
276 *939:B *417:14 0.000204043
277 *940:A *417:20 6.50586e-05
278 *940:B *417:20 3.82894e-05
279 *977:A *1330:B 1.43983e-05
280 *987:A *1340:B 0.000107729
281 *987:A *417:195 0.000159284
282 *990:A *1311:B 6.50586e-05
283 *990:A *417:153 0.000299298
284 *1002:A *1323:B 1.43983e-05
285 *1002:A *417:183 7.6719e-06
286 *1146:S1 *417:495 7.586e-05
287 *1170:A *417:195 0.000134071
288 *1186:A *417:363 0.000137858
289 *1297:A *417:489 1.19721e-05
290 *1301:A *1301:B 9.76996e-05
291 *1303:A *417:92 1.95129e-05
292 *1308:A *1308:B 6.11359e-06
293 *1322:A *1322:B 0.000163198
294 *1322:A *417:67 6.13051e-05
295 *1346:A *417:402 9.19886e-06
296 *1351:A *1351:B 0.000118017
297 *1353:A *417:526 1.21461e-06
298 *1365:A *417:351 1.65872e-05
299 *1414:D *417:489 5.49079e-06
300 *1415:D *417:477 0.000256307
301 *1472:D *417:322 3.28416e-06
302 *1477:D *417:351 0.000165521
303 *1493:D *417:353 5.09247e-06
304 *1493:D *417:426 4.15008e-05
305 *1506:D *1196:B 5.75759e-05
306 *1506:D *1314:B 5.98396e-05
307 *1506:DE *1196:B 3.34685e-05
308 *1509:D *417:351 2.84467e-05
309 *1509:DE *417:351 7.02172e-06
310 *1511:DE *417:465 7.92193e-05
311 *1514:DE *417:63 0.000673622
312 *1543:D *1351:B 0.000408506
313 *1543:D *417:469 2.81412e-05
314 *1545:D *417:526 0
315 *1547:D *417:183 7.20368e-05
316 *1557:D *417:426 0
317 *1586:D *1298:B 0.000110458
318 *1588:D *1300:B 2.16355e-05
319 *1588:D *417:121 3.5333e-05
320 *1596:D *1308:B 0.00011818
321 *1599:D *417:153 0.000594813
322 *1609:D *417:526 9.7087e-05
323 *1609:D *417:539 5.22654e-06
324 *1611:D *417:183 0.000213739
325 *1623:D *417:109 5.20546e-06
326 *1628:D *1340:B 0.000285537
327 *1634:D *1301:B 0.000160388
328 *1641:D *417:512 0.000654288
329 *1693:A *417:14 0.000367219
330 *1696:A *417:14 0.000176542
331 *1706:A1 *417:14 9.5145e-05
332 *1706:B1 *417:14 4.89898e-06
333 *2265:A *943:A 1.12605e-05
334 *7:43 *1340:B 0.000174063
335 *10:15 *417:168 2.0456e-06
336 *10:37 *417:168 9.93468e-06
337 *10:48 *1343:B 6.13051e-05
338 *10:48 *417:138 0.0002341
339 *14:19 *1314:B 2.30636e-05
340 *14:32 *1314:B 7.76624e-05
341 *14:49 *417:363 3.53354e-05
342 *17:41 *417:342 2.2694e-05
343 *17:41 *417:351 5.29299e-05
344 *17:43 *417:335 2.32594e-05
345 *17:43 *417:342 9.08435e-05
346 *17:45 *417:328 2.32594e-05
347 *17:45 *417:335 7.0656e-05
348 *17:51 *417:328 9.19886e-06
349 *19:17 *417:465 0.000302469
350 *19:43 *417:465 7.39918e-05
351 *19:58 *417:465 0.000673836
352 *19:58 *417:469 3.18797e-05
353 *21:13 *417:539 3.02603e-05
354 *21:21 *417:539 8.36429e-06
355 *21:37 *417:526 0.000102338
356 *22:35 *417:57 3.99086e-06
357 *22:35 *417:268 6.12686e-06
358 *22:41 *417:57 0.000113968
359 *23:27 *417:307 3.92275e-05
360 *23:29 *417:307 7.77309e-06
361 *24:31 *1355:B 2.37827e-05
362 *24:31 *417:191 0.000127271
363 *24:40 *1355:B 1.40978e-05
364 *27:15 *417:487 0
365 *27:32 *417:487 5.93547e-06
366 *28:13 *417:195 1.91246e-05
367 *28:15 *417:195 0.000376063
368 *28:63 *417:193 0.000272151
369 *28:63 *417:195 9.22349e-05
370 *31:43 *1333:B 1.92793e-05
371 *31:45 *1333:B 0.000178707
372 *31:47 *1333:B 4.30108e-05
373 *31:47 *417:430 5.20546e-06
374 *31:53 *417:353 4.42142e-05
375 *31:53 *417:426 0.000276921
376 *68:20 *417:51 0.000157432
377 *68:20 *417:57 7.48033e-05
378 *68:77 *417:84 0.000766475
379 *69:53 *417:138 0
380 *69:461 *417:495 9.34618e-06
381 *76:22 *417:51 0.00014083
382 *81:484 *417:51 0.00028249
383 *81:508 *417:51 5.44003e-05
384 *83:180 *417:14 1.65872e-05
385 *86:35 *417:14 0.000249799
386 *86:41 *417:14 0.000177787
387 *88:26 *417:14 6.18527e-05
388 *92:20 *417:14 0.000235622
389 *121:12 *417:84 0
390 *121:137 *417:351 1.82679e-05
391 *125:97 *1301:B 7.77309e-06
392 *126:75 *417:477 0.000101182
393 *128:20 *417:279 6.84302e-05
394 *128:44 *417:138 0.000958528
395 *362:14 *1322:B 0.000306757
396 *362:14 *417:63 0.000365511
397 *362:14 *417:67 0.00028775
*RES
1 *939:X *417:14 41.8868 
2 *417:14 *417:20 26.5245 
3 *417:20 *940:C 9.24915 
4 *417:20 *417:51 42.8772 
5 *417:51 *417:57 12.1862 
6 *417:57 *417:63 21.2133 
7 *417:63 *417:67 4.48505 
8 *417:67 *1322:B 14.4335 
9 *417:67 *417:84 31.9168 
10 *417:84 *417:86 29.0082 
11 *417:86 *417:92 10.4167 
12 *417:92 *1335:B 9.97254 
13 *417:92 *417:109 31.3526 
14 *417:109 *417:121 13.9531 
15 *417:121 *1332:B 15.5186 
16 *417:121 *417:138 42.7512 
17 *417:138 *1343:B 11.0817 
18 *417:138 *417:153 18.6259 
19 *417:153 *1311:B 10.9612 
20 *417:153 *417:168 34.9166 
21 *417:168 *1323:B 9.97254 
22 *417:168 *417:183 17.5111 
23 *417:183 *417:191 23.6952 
24 *417:191 *417:193 6.81502 
25 *417:193 *417:195 20.1031 
26 *417:195 *1340:B 21.2876 
27 *417:195 *1308:B 16.1364 
28 *417:193 *1330:B 14.4725 
29 *417:191 *1298:B 15.0271 
30 *417:183 *1355:B 12.191 
31 *417:109 *1300:B 16.5704 
32 *417:86 *1303:B 9.24915 
33 *417:84 *1175:B 9.24915 
34 *417:63 *2278:A 9.24915 
35 *417:57 *417:268 5.71483 
36 *417:268 *1194:B 9.24915 
37 *417:268 *417:275 11.8155 
38 *417:275 *417:279 15.4675 
39 *417:279 *956:A 13.7491 
40 *417:279 *943:A 24.2538 
41 *417:275 *417:307 29.7857 
42 *417:307 *417:313 17.1664 
43 *417:313 *1184:B 9.24915 
44 *417:313 *417:322 21.8615 
45 *417:322 *417:328 18.6937 
46 *417:328 *1317:B 9.24915 
47 *417:328 *417:335 5.16022 
48 *417:335 *1349:B 9.24915 
49 *417:335 *417:342 6.26943 
50 *417:342 *1189:B 9.24915 
51 *417:342 *417:351 36.8358 
52 *417:351 *417:353 18.8573 
53 *417:353 *417:355 1.41674 
54 *417:355 *417:363 10.973 
55 *417:363 *1196:B 31.8191 
56 *417:363 *1314:B 23.5 
57 *417:355 *1186:B 15.0271 
58 *417:353 *417:402 22.4161 
59 *417:402 *1346:B 9.24915 
60 *417:402 *1301:B 34.8457 
61 *417:351 *417:426 6.81502 
62 *417:426 *417:430 5.2234 
63 *417:430 *1173:B 9.24915 
64 *417:430 *1333:B 23.8376 
65 *417:426 *417:444 13.4591 
66 *417:444 *1169:B 18.3548 
67 *417:444 *417:461 22.9018 
68 *417:461 *417:465 24.6031 
69 *417:465 *417:469 5.88681 
70 *417:469 *417:477 23.1636 
71 *417:477 *417:487 20.0295 
72 *417:487 *417:489 25.6806 
73 *417:489 *417:495 16.4752 
74 *417:495 *417:497 5.56926 
75 *417:497 *1190:B 27.9428 
76 *417:497 *417:512 16.3155 
77 *417:512 *417:526 21.0446 
78 *417:526 *1321:B 13.7491 
79 *417:526 *417:539 31.313 
80 *417:539 *1327:B 14.964 
81 *417:539 *1295:B 9.24915 
82 *417:512 *1353:B 9.24915 
83 *417:495 *1350:B 13.7491 
84 *417:489 *1318:B 9.24915 
85 *417:487 *1297:B 9.24915 
86 *417:477 *1329:B 9.24915 
87 *417:469 *1351:B 40.4596 
88 *417:465 *1319:B 15.0271 
89 *417:461 *1191:B 11.0817 
90 *417:322 *1193:B 21.8099 
91 *417:307 *1167:B 13.7491 
92 *417:51 *951:A 14.4725 
*END

*D_NET *418 0.129039
*CONN
*I *1226:B I *D sky130_fd_sc_hd__and2_0
*I *1218:B I *D sky130_fd_sc_hd__and2_0
*I *1205:B I *D sky130_fd_sc_hd__and2_0
*I *1228:B I *D sky130_fd_sc_hd__and2_0
*I *1209:B I *D sky130_fd_sc_hd__and2_0
*I *1210:B I *D sky130_fd_sc_hd__and2_0
*I *1213:B I *D sky130_fd_sc_hd__and2_0
*I *1211:B I *D sky130_fd_sc_hd__and2_0
*I *1221:B I *D sky130_fd_sc_hd__and2_0
*I *1223:B I *D sky130_fd_sc_hd__and2_0
*I *1201:B I *D sky130_fd_sc_hd__and2_0
*I *1222:B I *D sky130_fd_sc_hd__and2_0
*I *1225:B I *D sky130_fd_sc_hd__and2_0
*I *1216:B I *D sky130_fd_sc_hd__and2_0
*I *1199:B I *D sky130_fd_sc_hd__and2_0
*I *941:A_N I *D sky130_fd_sc_hd__nand2b_4
*I *1204:B I *D sky130_fd_sc_hd__and2_0
*I *1207:B I *D sky130_fd_sc_hd__and2_0
*I *1200:B I *D sky130_fd_sc_hd__and2_0
*I *1219:B I *D sky130_fd_sc_hd__and2_0
*I *1206:B I *D sky130_fd_sc_hd__and2_0
*I *1197:B I *D sky130_fd_sc_hd__and2_0
*I *1214:B I *D sky130_fd_sc_hd__and2_0
*I *1224:B I *D sky130_fd_sc_hd__and2_0
*I *1208:B I *D sky130_fd_sc_hd__and2_0
*I *1198:B I *D sky130_fd_sc_hd__and2_0
*I *1227:B I *D sky130_fd_sc_hd__and2_0
*I *1202:B I *D sky130_fd_sc_hd__and2_0
*I *1217:B I *D sky130_fd_sc_hd__and2_0
*I *1203:B I *D sky130_fd_sc_hd__and2_0
*I *1220:B I *D sky130_fd_sc_hd__and2_0
*I *1212:B I *D sky130_fd_sc_hd__and2_0
*I *1215:B I *D sky130_fd_sc_hd__and2_0
*I *940:X O *D sky130_fd_sc_hd__and3_1
*CAP
1 *1226:B 0
2 *1218:B 0
3 *1205:B 0
4 *1228:B 0.000442057
5 *1209:B 0
6 *1210:B 7.31899e-05
7 *1213:B 1.15099e-05
8 *1211:B 0.000777615
9 *1221:B 0
10 *1223:B 0.000474905
11 *1201:B 0
12 *1222:B 0.000334854
13 *1225:B 1.50198e-05
14 *1216:B 0.000491635
15 *1199:B 3.62125e-05
16 *941:A_N 0
17 *1204:B 0
18 *1207:B 0.000409897
19 *1200:B 7.16427e-05
20 *1219:B 0.000302101
21 *1206:B 0.000357337
22 *1197:B 0
23 *1214:B 0
24 *1224:B 8.11282e-06
25 *1208:B 0
26 *1198:B 0
27 *1227:B 0
28 *1202:B 0.000457734
29 *1217:B 0
30 *1203:B 0.00171361
31 *1220:B 0
32 *1212:B 0.00068156
33 *1215:B 9.56157e-05
34 *940:X 0.00102837
35 *418:537 0.00115115
36 *418:518 0.00191801
37 *418:461 0.00152265
38 *418:459 0.00223017
39 *418:449 0.00172911
40 *418:447 0.00134483
41 *418:443 0.00180064
42 *418:431 0.00220035
43 *418:418 0.000750017
44 *418:396 0.00194528
45 *418:383 0.00207076
46 *418:377 0.0014596
47 *418:360 0.00200003
48 *418:326 0.000637873
49 *418:320 0.00242833
50 *418:289 0.0012735
51 *418:249 0.00141471
52 *418:230 0.00215918
53 *418:215 0.00217547
54 *418:207 0.0030148
55 *418:194 0.00211234
56 *418:188 0.00124963
57 *418:180 0.0020529
58 *418:142 0.00108636
59 *418:119 0.00297445
60 *418:112 0.00144865
61 *418:97 0.00301353
62 *418:89 0.00195651
63 *418:87 0.00128302
64 *418:72 0.00252443
65 *418:60 0.00194064
66 *418:50 0.00256534
67 *418:44 0.00130999
68 *418:34 0.00210413
69 *418:30 0.00164705
70 *418:20 0.00197236
71 *418:16 0.00118109
72 *1199:B *876:6 9.14505e-05
73 *1199:B *880:21 0.000217923
74 *1200:B *459:18 3.37866e-05
75 *1202:B *894:253 4.9e-05
76 *1202:B *904:58 0
77 *1203:B *1120:A0 0.00014472
78 *1203:B *1572:DE 9.22151e-06
79 *1206:B *1494:CLK 0
80 *1206:B *1494:DE 9.75356e-05
81 *1206:B *423:167 0
82 *1206:B *856:333 0.000119182
83 *1206:B *865:350 5.04829e-06
84 *1206:B *865:371 5.56367e-05
85 *1206:B *892:281 0
86 *1207:B *1655:DE 0.000363205
87 *1211:B *1085:S0 0.000110184
88 *1211:B *1277:B 0
89 *1211:B *1565:CLK 0.000724825
90 *1211:B *858:480 0
91 *1211:B *876:186 0
92 *1211:B *876:242 0.000237668
93 *1211:B *881:259 3.95854e-05
94 *1212:B *1276:B 0.000527492
95 *1212:B *1276:C 1.69592e-05
96 *1212:B *1564:DE 1.7077e-05
97 *1216:B *880:29 0.000342731
98 *1219:B *1507:CLK 0.000216458
99 *1219:B *858:18 0.000414903
100 *1219:B *865:336 4.58907e-05
101 *1222:B *876:102 7.21473e-05
102 *1223:B *888:12 0.000794066
103 *1223:B *888:132 0.00042026
104 *1224:B *882:107 6.50586e-05
105 *1225:B *1481:CLK 1.33284e-05
106 *1228:B *1161:A0 0
107 *1228:B *423:368 0.000217313
108 *1228:B *858:443 8.56325e-05
109 *418:16 *1683:A 2.58616e-05
110 *418:16 *1688:C1 0.000160942
111 *418:16 *1691:D 0.000156076
112 *418:16 *820:6 0.000234888
113 *418:20 *423:14 0.000330685
114 *418:30 *423:14 1.72347e-05
115 *418:30 *423:20 0.000115508
116 *418:30 *423:24 2.12423e-05
117 *418:30 *423:28 0.000129225
118 *418:30 *423:30 3.20407e-05
119 *418:30 *879:16 0.000698656
120 *418:30 *879:22 0.000284018
121 *418:30 *903:10 0.00107054
122 *418:34 *1055:A3 4.43615e-05
123 *418:34 *471:18 0.000269601
124 *418:34 *865:16 8.37016e-05
125 *418:44 *459:18 0.000111889
126 *418:50 *1040:A1 7.6992e-05
127 *418:50 *423:42 0
128 *418:50 *423:46 0
129 *418:50 *874:54 0.000448392
130 *418:50 *874:56 0.000454695
131 *418:50 *874:58 0.000116887
132 *418:60 *873:80 4.89251e-05
133 *418:72 *1095:A1 3.41552e-05
134 *418:72 *424:83 5.04829e-06
135 *418:72 *865:57 8.40003e-05
136 *418:72 *873:80 7.2827e-05
137 *418:72 *904:36 0.000499333
138 *418:87 *424:83 0.000143311
139 *418:87 *424:99 9.34122e-05
140 *418:87 *865:57 9.8239e-05
141 *418:87 *865:67 4.10737e-05
142 *418:87 *868:27 0
143 *418:87 *904:36 2.44285e-05
144 *418:89 *1030:A2 8.36586e-06
145 *418:89 *868:27 0
146 *418:97 *1030:A2 0.000276169
147 *418:97 *1030:A3 0
148 *418:97 *1080:A2 0.000194641
149 *418:97 *865:102 0.00010914
150 *418:112 *1080:A0 2.91706e-06
151 *418:119 *1284:C 1.57635e-05
152 *418:142 *1121:A2 0.000273794
153 *418:142 *1121:A3 0
154 *418:142 *1284:B 0.000225108
155 *418:142 *1412:CLK 0
156 *418:142 *1572:CLK 0
157 *418:142 *860:103 0.000130649
158 *418:142 *868:67 0.000223277
159 *418:142 *868:69 4.69211e-05
160 *418:142 *868:71 6.59545e-05
161 *418:142 *868:77 0.000385244
162 *418:142 *893:205 0
163 *418:180 *962:B 0.000355514
164 *418:180 *1166:C 0.000188433
165 *418:180 *423:55 2.66898e-05
166 *418:180 *424:242 0.000345222
167 *418:180 *424:272 0.000575585
168 *418:188 *858:18 0.000114495
169 *418:194 *1185:B 6.27782e-05
170 *418:194 *1347:C 4.37678e-05
171 *418:194 *1539:DE 4.69495e-06
172 *418:194 *1571:CLK 0.000588104
173 *418:194 *1603:DE 0.000237129
174 *418:194 *857:98 0.000543317
175 *418:194 *867:46 0
176 *418:194 *874:326 0.000257462
177 *418:194 *874:334 6.55019e-05
178 *418:194 *877:162 0.000145903
179 *418:194 *892:77 0.000377578
180 *418:194 *892:92 0.000358527
181 *418:207 *1060:A0 7.31677e-06
182 *418:207 *1185:B 0.000401119
183 *418:207 *1272:B 3.74146e-05
184 *418:207 *1560:CLK 0.00016553
185 *418:207 *1560:DE 3.42041e-05
186 *418:207 *424:432 1.44237e-05
187 *418:207 *903:249 0.000101365
188 *418:215 *1288:B 0
189 *418:215 *423:167 0
190 *418:215 *856:333 5.8981e-05
191 *418:215 *857:175 0.000452753
192 *418:215 *862:60 7.22572e-05
193 *418:215 *874:535 0
194 *418:215 *875:189 0.000102982
195 *418:215 *875:211 0.0003696
196 *418:215 *892:262 0
197 *418:215 *892:275 0
198 *418:230 *1288:C 2.45274e-05
199 *418:230 *881:174 0.000485193
200 *418:230 *882:107 0.00064281
201 *418:230 *891:133 0.000198749
202 *418:249 *1549:DE 0.000367119
203 *418:249 *891:103 0.000114833
204 *418:320 *969:B 6.08467e-05
205 *418:320 *1150:A0 5.82207e-05
206 *418:320 *1194:C 2.23105e-05
207 *418:320 *423:331 0.000948521
208 *418:320 *887:272 5.26029e-05
209 *418:320 *887:287 1.86178e-05
210 *418:326 *876:6 2.81262e-05
211 *418:326 *876:45 5.04829e-06
212 *418:326 *880:21 0.000107496
213 *418:326 *880:320 9.32983e-05
214 *418:326 *887:272 0.000144531
215 *418:360 *1481:CLK 3.99086e-06
216 *418:360 *423:331 2.34243e-05
217 *418:360 *423:335 0.000380315
218 *418:360 *423:352 2.16355e-05
219 *418:360 *887:258 3.99086e-06
220 *418:377 *1481:CLK 0.000143387
221 *418:377 *449:14 0.00140709
222 *418:377 *858:364 3.02567e-05
223 *418:377 *880:326 0.000316507
224 *418:377 *880:339 0.000233237
225 *418:377 *906:64 6.27718e-05
226 *418:383 *1190:C 4.58666e-05
227 *418:383 *858:379 0.000311072
228 *418:383 *876:104 7.47357e-05
229 *418:383 *906:72 8.20742e-05
230 *418:396 *1130:A0 1.13341e-06
231 *418:396 *876:102 1.40978e-05
232 *418:418 *1130:S0 0.00013029
233 *418:418 *1285:B 0.00122087
234 *418:418 *449:14 0.000425337
235 *418:418 *872:86 6.1096e-05
236 *418:418 *876:121 5.73392e-05
237 *418:418 *880:339 0.000145619
238 *418:418 *881:57 0.000581494
239 *418:418 *881:525 2.19588e-05
240 *418:431 *1125:A1 7.24126e-05
241 *418:431 *1285:B 0.000189753
242 *418:431 *1285:C 4.0752e-05
243 *418:443 *1125:A0 9.83241e-05
244 *418:443 *1125:A1 0.000165795
245 *418:443 *1125:A3 3.15128e-05
246 *418:443 *1125:S0 6.84497e-05
247 *418:443 *1365:B 0.000203971
248 *418:443 *880:173 0.000299049
249 *418:443 *905:12 0
250 *418:447 *1580:CLK 2.16355e-05
251 *418:447 *871:105 5.41573e-05
252 *418:449 *858:443 0.000641845
253 *418:459 *1114:A2 0.000286885
254 *418:459 *423:379 0
255 *418:459 *485:20 0
256 *418:459 *858:443 2.02035e-05
257 *418:461 *1065:A0 0.000346348
258 *418:461 *1065:S1 0
259 *418:461 *1085:S0 0.000182165
260 *418:461 *423:381 0
261 *418:518 *1365:B 0.00120578
262 *418:518 *858:431 2.71808e-05
263 *418:518 *881:379 2.19239e-05
264 *418:537 *1186:C 0.000129415
265 *418:537 *1557:CLK 0.000519705
266 *418:537 *888:257 0.000137299
267 *418:537 *889:230 9.87648e-05
268 *968:A *418:360 3.83429e-05
269 *999:A *418:215 1.65764e-05
270 *1030:S1 *1202:B 0.000703222
271 *1080:S0 *418:97 0.000522469
272 *1080:S1 *418:97 0
273 *1165:A *418:249 0.000110458
274 *1166:A *418:60 4.66492e-05
275 *1166:A *418:180 6.08467e-05
276 *1167:A *1216:B 0.00012568
277 *1177:A *418:449 0.000149643
278 *1178:A *418:459 4.57087e-05
279 *1183:A *418:72 0.000309405
280 *1183:A *418:87 2.95757e-05
281 *1194:A *418:320 0.000156076
282 *1200:A *1200:B 6.08467e-05
283 *1203:A *1203:B 4.31603e-06
284 *1207:A *1207:B 6.08467e-05
285 *1208:A *418:194 6.46815e-05
286 *1208:A *418:207 0.000339378
287 *1216:A *1216:B 0.000113968
288 *1219:A *1219:B 0
289 *1223:A *1223:B 0.000115934
290 *1225:A *418:360 2.16355e-05
291 *1263:A *418:326 0.000107496
292 *1266:A *1202:B 6.53968e-05
293 *1276:A *1212:B 4.82966e-05
294 *1284:A *418:112 7.02172e-06
295 *1284:A *418:119 0.000176388
296 *1285:A *418:431 4.88955e-05
297 *1288:A *1224:B 3.14978e-05
298 *1288:A *418:230 0.00014489
299 *1358:A *418:50 0
300 *1366:A *1206:B 0
301 *1370:A *1210:B 4.19199e-05
302 *1386:D *418:20 0.000290516
303 *1412:D *418:142 0.000470871
304 *1456:DE *1200:B 0.000110684
305 *1456:DE *418:44 0.000192188
306 *1469:D *1211:B 0
307 *1469:D *418:461 0
308 *1471:D *418:72 9.05742e-05
309 *1476:D *418:142 0.000135268
310 *1478:D *418:383 0.000672596
311 *1481:D *418:377 3.05435e-05
312 *1482:D *418:320 6.27332e-05
313 *1483:D *418:87 0.000174354
314 *1489:D *1223:B 2.65831e-05
315 *1493:D *418:518 4.69495e-06
316 *1494:D *1206:B 5.39608e-05
317 *1498:DE *418:459 0.000117719
318 *1499:D *1211:B 0.000156823
319 *1501:D *1213:B 6.27718e-05
320 *1504:D *1216:B 2.20702e-05
321 *1506:D *418:537 5.77231e-05
322 *1507:D *1219:B 0.000114584
323 *1510:D *418:396 6.44964e-06
324 *1513:D *418:360 0.000403908
325 *1513:D *418:377 2.29454e-05
326 *1514:D *418:16 0.000131924
327 *1514:DE *418:30 0
328 *1515:D *418:87 0.000145903
329 *1516:D *1228:B 0.000477721
330 *1551:D *418:360 5.34249e-06
331 *1551:DE *418:360 4.57667e-05
332 *1554:D *418:97 3.25751e-05
333 *1560:D *418:207 0.000186429
334 *1563:DE *1211:B 0
335 *1564:D *1212:B 0.000152687
336 *1565:D *1211:B 6.58085e-05
337 *1572:D *1203:B 0.00022032
338 *1574:D *418:396 5.49079e-06
339 *1574:D *418:418 6.1096e-05
340 *1574:DE *418:396 3.81893e-05
341 *1578:D *418:320 0.000288055
342 *1578:DE *418:320 8.52404e-05
343 *1579:D *418:87 0
344 *1580:D *418:447 2.84236e-05
345 *1608:D *418:215 0.000329301
346 *1640:D *418:215 0.00022768
347 *1645:D *418:249 0.000167996
348 *1646:D *418:60 2.85865e-05
349 *1658:D *418:461 2.85637e-05
350 *1681:B *418:16 0
351 *5:42 *1210:B 0.000114271
352 *7:82 *1212:B 0.000123176
353 *8:31 *1213:B 6.27718e-05
354 *9:59 *418:230 0
355 *10:67 *1215:B 0.000565999
356 *10:67 *418:72 4.66492e-05
357 *12:30 *418:60 0.000259225
358 *12:34 *418:50 2.6524e-05
359 *13:28 *418:142 0.000114518
360 *13:34 *418:142 0.0002646
361 *14:32 *418:537 0
362 *15:34 *418:194 2.39926e-05
363 *15:45 *418:194 2.13316e-05
364 *16:24 *418:112 3.75382e-05
365 *17:23 *418:443 2.44031e-06
366 *17:31 *418:418 0.000111722
367 *17:31 *418:431 0.000321905
368 *20:42 *418:215 8.531e-05
369 *20:55 *418:215 5.01724e-05
370 *20:68 *418:215 7.45722e-06
371 *21:45 *418:360 2.42273e-05
372 *22:23 *418:16 0.000109421
373 *22:31 *418:16 6.27782e-05
374 *22:31 *418:20 4.28349e-06
375 *23:27 *418:320 1.35062e-05
376 *23:29 *1216:B 2.24484e-05
377 *26:26 *418:50 0
378 *26:32 *418:50 2.63369e-05
379 *29:32 *1203:B 3.6455e-05
380 *29:41 *1203:B 2.82583e-05
381 *32:15 *418:215 2.02035e-05
382 *32:82 *1206:B 6.08467e-05
383 *68:28 *418:16 0
384 *68:77 *418:34 0
385 *68:260 *418:87 6.73439e-05
386 *68:260 *418:89 0.000737739
387 *68:264 *418:89 6.91504e-05
388 *68:264 *418:97 0.00127657
389 *69:138 *1215:B 0.000240798
390 *69:138 *418:72 3.82228e-05
391 *69:183 *418:34 0
392 *69:187 *418:34 0
393 *69:187 *418:44 7.66564e-05
394 *70:40 *1207:B 0
395 *70:57 *418:87 0.000878916
396 *70:63 *418:87 6.20492e-05
397 *81:484 *418:16 0.000563843
398 *121:12 *418:30 0.000100956
399 *121:42 *418:30 1.65872e-05
400 *121:59 *1216:B 0.000602156
401 *121:137 *418:443 0.000266177
402 *123:16 *418:289 7.20028e-05
403 *124:100 *418:443 0.001161
404 *124:104 *418:443 6.87335e-05
405 *124:133 *1211:B 0
406 *318:24 *418:249 0.00012813
407 *325:14 *418:431 0
408 *325:14 *418:443 0
409 *362:14 *418:30 0
410 *417:51 *418:16 0.000201719
411 *417:63 *418:30 0
412 *417:268 *418:320 4.41269e-05
413 *417:275 *418:320 0.000241341
414 *417:307 *418:320 0.000399945
415 *417:307 *418:326 0.000144531
416 *417:353 *418:518 1.91246e-05
417 *417:353 *418:537 0
418 *417:355 *418:537 0
*RES
1 *940:X *418:16 47.4737 
2 *418:16 *418:20 10.8998 
3 *418:20 *418:30 35.6473 
4 *418:30 *418:34 25.4336 
5 *418:34 *418:44 16.5485 
6 *418:44 *418:50 33.6709 
7 *418:50 *418:60 16.0217 
8 *418:60 *418:72 39.4538 
9 *418:72 *1215:B 15.5186 
10 *418:72 *418:87 33.2745 
11 *418:87 *418:89 14.2896 
12 *418:89 *418:97 42.117 
13 *418:97 *1212:B 24.9951 
14 *418:97 *418:112 18.9047 
15 *418:112 *1220:B 9.24915 
16 *418:112 *418:119 5.71483 
17 *418:119 *1203:B 41.6814 
18 *418:119 *418:142 46.4422 
19 *418:142 *1217:B 9.24915 
20 *418:89 *1202:B 31.8527 
21 *418:87 *1227:B 13.7491 
22 *418:60 *1198:B 9.24915 
23 *418:50 *418:180 27.9621 
24 *418:180 *418:188 16.9621 
25 *418:188 *418:194 39.0298 
26 *418:194 *1208:B 9.24915 
27 *418:194 *418:207 36.4741 
28 *418:207 *418:215 48.761 
29 *418:215 *1224:B 9.97254 
30 *418:215 *418:230 34.8459 
31 *418:230 *1214:B 9.24915 
32 *418:230 *418:249 43.9363 
33 *418:249 *1197:B 9.24915 
34 *418:207 *1206:B 24.1943 
35 *418:180 *1219:B 24.1971 
36 *418:44 *1200:B 12.191 
37 *418:34 *418:289 22.4402 
38 *418:289 *1207:B 28.5606 
39 *418:289 *1204:B 9.24915 
40 *418:30 *941:A_N 9.24915 
41 *418:20 *418:320 43.8618 
42 *418:320 *418:326 9.54971 
43 *418:326 *1199:B 11.6364 
44 *418:326 *1216:B 37.0022 
45 *418:320 *418:360 30.8557 
46 *418:360 *1225:B 9.97254 
47 *418:360 *418:377 18.2793 
48 *418:377 *418:383 20.2897 
49 *418:383 *1222:B 14.8434 
50 *418:383 *418:396 21.5331 
51 *418:396 *1201:B 9.24915 
52 *418:396 *1223:B 26.056 
53 *418:377 *418:418 30.0456 
54 *418:418 *1221:B 9.24915 
55 *418:418 *418:431 16.3144 
56 *418:431 *418:443 48.4642 
57 *418:443 *418:447 12.9878 
58 *418:447 *418:449 11.3828 
59 *418:449 *418:459 13.5875 
60 *418:459 *418:461 20.1031 
61 *418:461 *1211:B 40.081 
62 *418:461 *1213:B 14.4725 
63 *418:459 *1210:B 16.1364 
64 *418:449 *1209:B 13.7491 
65 *418:447 *1228:B 26.9069 
66 *418:431 *418:518 10.592 
67 *418:518 *1205:B 9.24915 
68 *418:518 *418:537 41.4084 
69 *418:537 *1218:B 9.24915 
70 *418:16 *1226:B 9.24915 
*END

*D_NET *419 0.0277776
*CONN
*I *2283:A I *D sky130_fd_sc_hd__buf_8
*I *982:B I *D sky130_fd_sc_hd__and3_1
*I *1335:C I *D sky130_fd_sc_hd__and3_1
*I *1332:C I *D sky130_fd_sc_hd__and3_1
*I *1343:C I *D sky130_fd_sc_hd__and3_1
*I *990:B I *D sky130_fd_sc_hd__and3_1
*I *1002:B I *D sky130_fd_sc_hd__and3_1
*I *1355:C I *D sky130_fd_sc_hd__and3_1
*I *977:B I *D sky130_fd_sc_hd__and3_1
*I *1330:C I *D sky130_fd_sc_hd__and3_1
*I *987:B I *D sky130_fd_sc_hd__and3_1
*I *1340:C I *D sky130_fd_sc_hd__and3_1
*I *979:B I *D sky130_fd_sc_hd__and3_1
*I *942:Y O *D sky130_fd_sc_hd__nor2_4
*CAP
1 *2283:A 0.000256458
2 *982:B 0
3 *1335:C 0.000187754
4 *1332:C 0.000295111
5 *1343:C 1.77647e-05
6 *990:B 0
7 *1002:B 0
8 *1355:C 4.80483e-05
9 *977:B 0.0001314
10 *1330:C 0.000111915
11 *987:B 5.7012e-05
12 *1340:C 0.000557693
13 *979:B 0
14 *942:Y 4.85009e-05
15 *419:99 0.00111069
16 *419:97 0.00065759
17 *419:95 0.00105242
18 *419:89 0.00102795
19 *419:81 0.00106612
20 *419:71 0.00110489
21 *419:61 0.00101121
22 *419:39 0.00127312
23 *419:28 0.000742481
24 *419:22 0.00088723
25 *419:18 0.000664648
26 *419:16 0.00169504
27 *419:12 0.00162756
28 *419:8 0.000813232
29 *977:B *1394:CLK 1.43983e-05
30 *987:B *987:C 1.21461e-06
31 *1332:C *869:10 0.000170184
32 *1335:C *427:25 0.000248556
33 *1340:C *1628:CLK 0.00010716
34 *1340:C *869:52 0.000225124
35 *1340:C *894:51 5.37077e-05
36 *1340:C *894:53 6.49694e-05
37 *1340:C *894:57 9.27556e-05
38 *1343:C *505:16 3.97027e-05
39 *2283:A *421:25 7.20028e-05
40 *2283:A *427:10 0
41 *419:12 *932:CLK 1.07549e-05
42 *419:12 *427:10 0
43 *419:12 *873:14 0
44 *419:16 *1056:A3 0
45 *419:16 *1678:B1 0.000498267
46 *419:16 *427:10 0.000178293
47 *419:16 *898:66 0.000358559
48 *419:16 *902:34 9.76242e-05
49 *419:16 *902:45 0.000130092
50 *419:16 *902:58 2.65601e-05
51 *419:28 *1588:CLK 1.03403e-05
52 *419:28 *427:25 0.000210475
53 *419:28 *427:31 0.000730982
54 *419:28 *427:41 0.000172696
55 *419:28 *873:30 0.000167325
56 *419:39 *1588:CLK 7.92757e-06
57 *419:61 *1588:CLK 4.48391e-05
58 *419:61 *1631:CLK 2.41759e-05
59 *419:61 *427:41 1.19513e-05
60 *419:61 *505:16 0.000115866
61 *419:61 *857:363 7.0995e-05
62 *419:71 *427:58 0
63 *419:71 *505:16 2.03735e-05
64 *419:71 *857:363 0.000144531
65 *419:81 *1599:CLK 4.19247e-05
66 *419:81 *1611:CLK 0.000262537
67 *419:81 *427:58 3.77804e-05
68 *419:81 *857:365 0.000100559
69 *419:81 *869:16 0
70 *419:81 *884:98 5.60061e-05
71 *419:81 *884:100 3.97254e-05
72 *419:81 *884:117 0.000695261
73 *419:81 *884:123 7.65861e-05
74 *419:89 *1611:CLK 0.000101528
75 *419:89 *857:365 7.07115e-06
76 *419:89 *869:44 7.14746e-05
77 *419:95 *1611:CLK 0.000239575
78 *419:95 *427:74 0
79 *419:95 *427:76 0
80 *419:95 *427:82 0
81 *419:95 *869:44 0.000664816
82 *419:97 *427:82 0
83 *419:97 *869:44 0.000102632
84 *419:99 *427:82 0
85 *419:99 *869:44 3.54714e-05
86 *419:99 *869:46 0.000251628
87 *419:99 *869:48 0.000596662
88 *419:99 *869:52 0.000103563
89 *924:B *419:12 0.000170667
90 *932:D *419:12 3.88415e-05
91 *932:D *419:16 1.66398e-05
92 *934:D *2283:A 0
93 *936:D *419:12 5.52211e-06
94 *936:D *419:16 0.000208076
95 *942:A *2283:A 2.5386e-05
96 *942:A *419:12 5.54078e-05
97 *977:A *977:B 1.03403e-05
98 *977:A *1330:C 0.000305679
99 *1332:B *1332:C 1.25565e-05
100 *1335:B *1335:C 6.73917e-07
101 *1340:B *1340:C 0
102 *1527:D *1335:C 5.60878e-05
103 *1527:D *419:28 0.000128515
104 *1588:D *419:39 0.000212838
105 *1588:D *419:61 0.000238954
106 *1599:D *419:71 5.31074e-05
107 *1599:D *419:81 0.00011818
108 *1611:D *419:89 0.000136475
109 *1618:D *419:99 0
110 *1631:D *419:61 9.55862e-05
111 *1665:A *419:16 0.000101148
112 *1699:A *419:12 0.00016279
113 *2:43 *419:18 0.000257722
114 *2:43 *419:22 3.82228e-05
115 *2:87 *1335:C 3.13679e-05
116 *10:48 *1343:C 1.38184e-05
117 *10:48 *419:61 0.000128465
118 *10:48 *419:71 7.80866e-05
119 *24:31 *419:95 3.31745e-05
120 *24:40 *1355:C 5.70084e-05
121 *24:40 *419:95 6.50727e-05
122 *67:18 *419:61 0.000263999
123 *69:47 *419:16 0
124 *81:471 *419:16 6.58106e-05
125 *85:92 *2283:A 0
126 *85:92 *419:8 1.43983e-05
127 *127:45 *419:61 0
128 *127:47 *419:61 0
129 *417:109 *419:28 7.23587e-06
130 *417:121 *419:28 8.85931e-05
131 *417:121 *419:39 0.000199375
132 *417:121 *419:61 0.000104025
133 *417:138 *1332:C 5.20546e-06
134 *417:183 *419:95 0.000119538
135 *417:195 *1340:C 0
136 *417:195 *419:99 0
*RES
1 *942:Y *419:8 14.4725 
2 *419:8 *419:12 14.3995 
3 *419:12 *419:16 42.2513 
4 *419:16 *419:18 9.04245 
5 *419:18 *419:22 5.778 
6 *419:22 *419:28 25.3265 
7 *419:28 *979:B 9.24915 
8 *419:28 *419:39 9.13165 
9 *419:39 *419:61 30.8229 
10 *419:61 *419:71 13.3143 
11 *419:71 *419:81 33.9907 
12 *419:81 *419:89 8.89679 
13 *419:89 *419:95 29.7577 
14 *419:95 *419:97 1.832 
15 *419:97 *419:99 17.1963 
16 *419:99 *1340:C 28.5133 
17 *419:99 *987:B 14.4725 
18 *419:97 *1330:C 17.0527 
19 *419:95 *977:B 15.5817 
20 *419:89 *1355:C 10.069 
21 *419:81 *1002:B 13.7491 
22 *419:71 *990:B 9.24915 
23 *419:61 *1343:C 10.075 
24 *419:39 *1332:C 20.3803 
25 *419:22 *1335:C 19.6569 
26 *419:18 *982:B 9.24915 
27 *419:8 *2283:A 20.3205 
*END

*D_NET *420 0.0064209
*CONN
*I *944:B I *D sky130_fd_sc_hd__nand2_1
*I *943:Y O *D sky130_fd_sc_hd__nand2_1
*CAP
1 *944:B 0.00261703
2 *943:Y 0.00261703
3 *944:B *1688:A1 0.000373393
4 *944:B *1692:CLK 0.000126411
5 *944:B *1692:D 4.27741e-06
6 *944:B *878:13 0.000411017
7 *944:B *881:8 1.91391e-05
8 *944:B *902:132 0.000199394
9 *22:17 *944:B 2.45467e-05
10 *77:16 *944:B 0
11 *128:16 *944:B 2.86549e-05
*RES
1 *943:Y *944:B 49.6093 
*END

*D_NET *421 0.0235871
*CONN
*I *948:C I *D sky130_fd_sc_hd__and3_1
*I *1290:B I *D sky130_fd_sc_hd__and3_1
*I *2276:A I *D sky130_fd_sc_hd__buf_6
*I *1258:B I *D sky130_fd_sc_hd__and3_1
*I *953:A I *D sky130_fd_sc_hd__nand2_1
*I *1271:B I *D sky130_fd_sc_hd__and3_1
*I *1001:C I *D sky130_fd_sc_hd__and3_1
*I *1232:B I *D sky130_fd_sc_hd__and3_1
*I *975:C I *D sky130_fd_sc_hd__and3_1
*I *2277:A I *D sky130_fd_sc_hd__buf_6
*I *945:Y O *D sky130_fd_sc_hd__nor4bb_4
*CAP
1 *948:C 9.6923e-05
2 *1290:B 0
3 *2276:A 0.000153974
4 *1258:B 5.0318e-05
5 *953:A 0
6 *1271:B 0.000848822
7 *1001:C 0.000224631
8 *1232:B 0.00034924
9 *975:C 2.70403e-05
10 *2277:A 0.000135872
11 *945:Y 0.000351305
12 *421:137 0.000274544
13 *421:108 0.00106648
14 *421:75 0.000877002
15 *421:67 0.00165335
16 *421:53 0.00124887
17 *421:51 0.00135393
18 *421:45 0.00310911
19 *421:25 0.00256578
20 *421:10 0.00116789
21 *948:C *1688:A1 0
22 *948:C *879:12 7.25155e-05
23 *975:C *975:B 5.57132e-06
24 *1001:C *1001:B 3.58951e-06
25 *1232:B *2281:A 0
26 *1232:B *856:22 0.000598769
27 *1271:B *1559:CLK 2.84892e-05
28 *1271:B *1559:DE 1.38719e-05
29 *1271:B *424:35 8.62625e-06
30 *1271:B *424:45 0.000364017
31 *1271:B *884:354 6.03358e-05
32 *1271:B *903:16 1.0552e-05
33 *2276:A *1290:C 2.53992e-05
34 *2276:A *422:16 0.000124641
35 *2277:A *1698:A 0
36 *421:25 *879:12 0.000186836
37 *421:45 *1290:C 6.27614e-05
38 *421:45 *1688:A1 0
39 *421:45 *1688:A2 2.02596e-05
40 *421:45 *1690:D 0
41 *421:45 *1691:CLK 0.000214288
42 *421:45 *422:16 0
43 *421:51 *1290:C 0
44 *421:51 *1683:A 2.86013e-06
45 *421:51 *1683:C 1.41976e-05
46 *421:51 *1690:D 5.22654e-06
47 *421:51 *424:33 0
48 *421:51 *424:35 0
49 *421:67 *1055:A1 0.000281036
50 *421:67 *879:22 1.75637e-06
51 *421:75 *975:B 4.79321e-06
52 *421:75 *875:44 0
53 *421:75 *879:30 0.000832344
54 *421:137 *1290:C 6.12686e-06
55 *926:A *948:C 0
56 *926:A *421:45 0
57 *934:D *2277:A 0
58 *934:D *421:10 0
59 *945:B *421:10 0.000220183
60 *948:A *421:25 1.80176e-05
61 *948:B *421:25 0.000705064
62 *949:B *421:67 0.000143982
63 *1290:A *2276:A 0.000323465
64 *1290:A *421:137 3.62662e-06
65 *1386:D *421:51 0
66 *1392:D *421:75 0.000216396
67 *1514:D *421:51 0.000165766
68 *1514:DE *421:51 0
69 *1514:DE *421:53 0
70 *1520:D *1232:B 0.000306769
71 *1546:D *421:53 0.000104731
72 *1559:D *1271:B 2.99585e-05
73 *1578:D *2276:A 1.65872e-05
74 *1584:D *1232:B 7.326e-05
75 *1616:D *1232:B 6.36477e-05
76 *1616:D *421:75 0.000352879
77 *2283:A *421:25 7.20028e-05
78 *22:41 *421:51 0.000289819
79 *22:45 *421:51 4.59532e-05
80 *22:45 *421:53 3.78818e-05
81 *22:70 *1001:C 0.000211492
82 *22:70 *421:67 0.000414808
83 *68:20 *421:51 0
84 *68:71 *421:51 5.00906e-05
85 *68:73 *421:51 2.20056e-05
86 *68:77 *1271:B 0
87 *68:77 *421:51 6.24344e-05
88 *70:8 *421:45 2.71541e-05
89 *70:184 *421:45 9.50523e-05
90 *76:12 *421:51 0
91 *76:22 *421:51 0
92 *77:16 *421:10 9.13167e-05
93 *83:65 *421:67 0.000167111
94 *121:12 *421:67 0
95 *123:122 *1258:B 2.16355e-05
96 *124:12 *421:51 0.000199604
97 *127:20 *1271:B 5.04829e-06
98 *417:51 *421:51 0
99 *417:84 *421:51 7.91094e-05
100 *417:84 *421:53 0.000222714
101 *417:84 *421:67 0.0002236
*RES
1 *945:Y *421:10 20.1868 
2 *421:10 *2277:A 16.8269 
3 *421:10 *421:25 28.0253 
4 *421:25 *421:45 44.3312 
5 *421:45 *421:51 34.1889 
6 *421:51 *421:53 4.32351 
7 *421:53 *421:67 26.1556 
8 *421:67 *421:75 27.0619 
9 *421:75 *975:C 9.77964 
10 *421:75 *1232:B 29.1449 
11 *421:67 *1001:C 12.842 
12 *421:53 *421:108 8.55102 
13 *421:108 *1271:B 35.4889 
14 *421:108 *953:A 9.24915 
15 *421:51 *1258:B 14.4725 
16 *421:45 *421:137 1.8326 
17 *421:137 *2276:A 15.2533 
18 *421:137 *1290:B 9.24915 
19 *421:25 *948:C 15.9857 
*END

*D_NET *422 0.00409605
*CONN
*I *947:B I *D sky130_fd_sc_hd__nand2_1
*I *946:Y O *D sky130_fd_sc_hd__nand2_1
*CAP
1 *947:B 3.7466e-05
2 *946:Y 0.00104136
3 *422:16 0.00107883
4 *947:B *856:8 1.99882e-05
5 *947:B *875:20 5.56367e-05
6 *422:16 *946:A 3.69203e-05
7 *422:16 *2308:A 0
8 *422:16 *423:14 0.000494632
9 *422:16 *428:16 0.000677167
10 *422:16 *872:10 0.000122687
11 *422:16 *875:20 9.25708e-05
12 *422:16 *875:34 6.23875e-05
13 *422:16 *879:14 1.88878e-05
14 *947:A *947:B 1.1246e-05
15 *1386:D *422:16 0.000171552
16 *1578:D *422:16 2.77625e-06
17 *1647:DE *422:16 1.48869e-05
18 *2276:A *422:16 0.000124641
19 *122:29 *422:16 3.24105e-05
20 *421:45 *422:16 0
*RES
1 *946:Y *422:16 48.1562 
2 *422:16 *947:B 19.6659 
*END

*D_NET *423 0.120615
*CONN
*I *969:B I *D sky130_fd_sc_hd__and2_0
*I *1359:B I *D sky130_fd_sc_hd__and2_0
*I *965:B I *D sky130_fd_sc_hd__and2_0
*I *1361:B I *D sky130_fd_sc_hd__and2_0
*I *966:B I *D sky130_fd_sc_hd__and2_0
*I *964:B I *D sky130_fd_sc_hd__and2_0
*I *1365:B I *D sky130_fd_sc_hd__and2_0
*I *961:B I *D sky130_fd_sc_hd__and2_0
*I *1370:B I *D sky130_fd_sc_hd__and2_0
*I *1369:B I *D sky130_fd_sc_hd__and2_0
*I *1373:B I *D sky130_fd_sc_hd__and2_0
*I *1371:B I *D sky130_fd_sc_hd__and2_0
*I *971:B I *D sky130_fd_sc_hd__and2_0
*I *968:B I *D sky130_fd_sc_hd__and2_0
*I *949:A_N I *D sky130_fd_sc_hd__nand2b_4
*I *1376:B I *D sky130_fd_sc_hd__and2_0
*I *1367:B I *D sky130_fd_sc_hd__and2_0
*I *1360:B I *D sky130_fd_sc_hd__and2_0
*I *1364:B I *D sky130_fd_sc_hd__and2_0
*I *1375:B I *D sky130_fd_sc_hd__and2_0
*I *962:B I *D sky130_fd_sc_hd__and2_0
*I *1366:B I *D sky130_fd_sc_hd__and2_0
*I *967:B I *D sky130_fd_sc_hd__and2_0
*I *1363:B I *D sky130_fd_sc_hd__and2_0
*I *1357:B I *D sky130_fd_sc_hd__and2_0
*I *1374:B I *D sky130_fd_sc_hd__and2_0
*I *1368:B I *D sky130_fd_sc_hd__and2_0
*I *960:B I *D sky130_fd_sc_hd__and2_0
*I *1362:B I *D sky130_fd_sc_hd__and2_0
*I *1372:B I *D sky130_fd_sc_hd__and2_0
*I *963:B I *D sky130_fd_sc_hd__and2_0
*I *970:B I *D sky130_fd_sc_hd__and2_0
*I *1358:B I *D sky130_fd_sc_hd__and2_0
*I *948:X O *D sky130_fd_sc_hd__and3_1
*CAP
1 *969:B 4.57725e-05
2 *1359:B 0.000184744
3 *965:B 5.50833e-05
4 *1361:B 0
5 *966:B 0.000858572
6 *964:B 1.59894e-05
7 *1365:B 0.000826561
8 *961:B 0.000152498
9 *1370:B 0
10 *1369:B 0.000647597
11 *1373:B 3.55123e-05
12 *1371:B 0
13 *971:B 0
14 *968:B 0
15 *949:A_N 0
16 *1376:B 0.000761746
17 *1367:B 0.000565691
18 *1360:B 1.16004e-05
19 *1364:B 0
20 *1375:B 0.000952496
21 *962:B 0.000464097
22 *1366:B 0
23 *967:B 0
24 *1363:B 0.00111894
25 *1357:B 0.00100561
26 *1374:B 0.000106458
27 *1368:B 0
28 *960:B 2.2953e-05
29 *1362:B 0
30 *1372:B 0
31 *963:B 0.00135539
32 *970:B 3.16961e-05
33 *1358:B 0
34 *948:X 0.00116902
35 *423:462 0.00136021
36 *423:395 0.000802455
37 *423:385 0.000969642
38 *423:381 0.00129661
39 *423:379 0.00126244
40 *423:377 0.00159995
41 *423:368 0.00173813
42 *423:364 0.00199526
43 *423:362 0.000610932
44 *423:358 0.0014008
45 *423:352 0.0011009
46 *423:335 0.000789795
47 *423:331 0.00145621
48 *423:315 0.00303595
49 *423:251 0.00161608
50 *423:211 0.00122297
51 *423:175 0.00214536
52 *423:169 0.00195096
53 *423:167 0.00206034
54 *423:157 0.00217745
55 *423:146 0.00188576
56 *423:104 0.00245045
57 *423:94 0.00136397
58 *423:79 0.00193048
59 *423:71 0.00202765
60 *423:65 0.0024356
61 *423:55 0.00215996
62 *423:46 0.0010027
63 *423:42 0.00151803
64 *423:36 0.000899238
65 *423:30 0.00159705
66 *423:28 0.00144197
67 *423:24 0.000717814
68 *423:20 0.00234641
69 *423:14 0.000609542
70 *423:12 0.00158562
71 *961:B *1160:A0 0
72 *961:B *889:174 0
73 *962:B *1114:A2 0.00010238
74 *962:B *1283:C 4.24629e-05
75 *962:B *424:272 0.000256285
76 *963:B *1081:A0 4.17528e-05
77 *963:B *1082:A0 0
78 *963:B *433:14 0.000476184
79 *963:B *525:18 0
80 *963:B *903:91 0.000257196
81 *964:B *876:121 1.43848e-05
82 *965:B *544:14 3.94735e-05
83 *966:B *1025:A3 0.000190149
84 *966:B *1025:S1 1.60887e-05
85 *966:B *1130:A0 0
86 *966:B *1132:S 0
87 *966:B *1649:DE 1.32841e-05
88 *966:B *888:205 6.08467e-05
89 *966:B *888:217 2.82547e-05
90 *1357:B *1090:A3 0.000137156
91 *1357:B *1470:DE 0.000601709
92 *1357:B *433:14 3.88232e-05
93 *1357:B *865:262 0.000142867
94 *1357:B *865:289 0.000479991
95 *1357:B *874:461 8.98883e-06
96 *1359:B *1152:A1 3.22146e-05
97 *1359:B *880:12 0.000320293
98 *1359:B *881:8 0
99 *1360:B *424:223 4.88955e-05
100 *1363:B *1576:DE 0.00127814
101 *1363:B *858:85 0.00042926
102 *1363:B *892:161 0
103 *1363:B *903:106 0.00146823
104 *1365:B *1653:CLK 2.02035e-05
105 *1365:B *858:431 0.000325658
106 *1367:B *856:22 0.00167635
107 *1369:B *1469:CLK 0.000736557
108 *1369:B *2303:A 0.000216467
109 *1374:B *1182:C 7.26606e-05
110 *1374:B *865:262 7.86825e-06
111 *1374:B *891:120 0
112 *1375:B *1097:A0 0.000150013
113 *1375:B *505:16 8.64123e-05
114 *1375:B *858:197 0.000399228
115 *1376:B *863:16 0.00023748
116 *423:12 *1692:CLK 2.58757e-05
117 *423:12 *1692:D 1.92443e-05
118 *423:12 *879:12 0.000400749
119 *423:12 *886:152 6.08467e-05
120 *423:14 *879:14 0.000156062
121 *423:14 *879:16 0.000904029
122 *423:20 *1194:C 2.23124e-05
123 *423:20 *879:16 0.00011191
124 *423:24 *1194:C 3.63743e-05
125 *423:24 *879:16 0.000834232
126 *423:24 *879:22 0.000280421
127 *423:28 *1055:A1 9.07298e-05
128 *423:30 *1055:A1 0.000374176
129 *423:30 *874:28 0
130 *423:30 *874:34 0
131 *423:30 *875:52 0
132 *423:30 *903:10 9.36613e-05
133 *423:36 *1040:A1 0.000314694
134 *423:42 *1040:A2 0.000119268
135 *423:42 *1648:DE 4.35492e-05
136 *423:42 *424:223 0.000271058
137 *423:42 *858:165 0
138 *423:46 *858:165 0
139 *423:55 *1166:B 4.89392e-05
140 *423:55 *1166:C 7.40963e-05
141 *423:55 *424:242 0.000152969
142 *423:55 *424:272 0.000129101
143 *423:65 *1010:A3 1.90218e-05
144 *423:65 *1011:A3 0
145 *423:65 *437:16 0.000405134
146 *423:65 *873:91 0.000233794
147 *423:71 *860:88 5.25502e-05
148 *423:71 *893:109 0
149 *423:79 *860:88 2.0995e-05
150 *423:79 *893:64 7.79153e-05
151 *423:79 *893:109 0
152 *423:94 *1419:CLK 0.000158552
153 *423:94 *427:130 0.00016195
154 *423:94 *894:253 0.00040479
155 *423:94 *904:54 0.000335095
156 *423:104 *1031:A0 0.000447084
157 *423:104 *1081:A0 0.000192805
158 *423:104 *1081:A1 5.99717e-05
159 *423:104 *1081:A2 0
160 *423:104 *1081:A3 0
161 *423:104 *2298:A 7.86825e-06
162 *423:104 *424:113 0
163 *423:104 *427:130 0.000161956
164 *423:104 *894:173 0
165 *423:146 *874:334 0.000112361
166 *423:157 *1176:B 7.93204e-05
167 *423:157 *1176:C 1.93829e-05
168 *423:157 *874:334 0.000102403
169 *423:167 *1062:A0 0
170 *423:167 *892:137 0.000158161
171 *423:167 *892:139 0.00019819
172 *423:167 *892:143 0.000187513
173 *423:167 *892:149 2.1558e-06
174 *423:167 *892:262 0.000592091
175 *423:167 *892:275 0.000189496
176 *423:167 *892:281 0.000319606
177 *423:169 *892:149 7.25695e-05
178 *423:169 *892:155 0.000401492
179 *423:169 *892:159 5.36761e-05
180 *423:175 *1576:DE 0.000103325
181 *423:175 *858:85 0
182 *423:175 *865:239 0.000193089
183 *423:175 *865:262 0.00227337
184 *423:175 *892:159 6.14756e-06
185 *423:175 *892:161 7.86825e-06
186 *423:251 *1172:B 0.000633398
187 *423:251 *1172:C 3.24533e-05
188 *423:315 *1152:A0 5.65165e-05
189 *423:315 *1152:A1 0.000122339
190 *423:315 *1194:C 2.20702e-05
191 *423:315 *876:6 6.29347e-05
192 *423:315 *880:12 0.000151304
193 *423:331 *1015:A0 1.36007e-05
194 *423:331 *1015:A1 0.000107971
195 *423:331 *1016:S0 4.9576e-05
196 *423:331 *871:19 0.000147421
197 *423:331 *887:272 0.000168824
198 *423:335 *1015:A0 1.44925e-05
199 *423:352 *533:18 0.000391434
200 *423:352 *537:16 0.00196905
201 *423:352 *887:340 8.07366e-05
202 *423:358 *1147:S 2.02035e-05
203 *423:358 *544:14 8.17717e-05
204 *423:358 *906:87 0.000160617
205 *423:362 *1189:C 3.46062e-05
206 *423:362 *1285:B 0.000416539
207 *423:362 *876:104 2.46823e-05
208 *423:362 *876:106 0.000361883
209 *423:364 *1189:C 8.18934e-05
210 *423:364 *1285:B 3.20069e-06
211 *423:364 *1509:CLK 1.04747e-05
212 *423:364 *881:57 0
213 *423:368 *1126:A0 2.99929e-05
214 *423:368 *1126:A1 0
215 *423:368 *1160:S0 5.17866e-05
216 *423:368 *1161:A0 0
217 *423:368 *1162:A0 0
218 *423:368 *1509:CLK 0.000370683
219 *423:368 *557:18 0
220 *423:368 *858:441 0.0011585
221 *423:368 *858:443 0.000416594
222 *423:368 *881:57 0
223 *423:368 *881:63 4.0014e-05
224 *423:368 *889:133 0.000310236
225 *423:377 *1292:B 3.82228e-05
226 *423:377 *1292:C 7.93303e-06
227 *423:379 *1466:CLK 0
228 *423:379 *890:242 0
229 *423:381 *1065:S1 0.000197622
230 *423:381 *858:462 1.32841e-05
231 *423:381 *858:470 2.42906e-05
232 *423:381 *890:242 0
233 *423:381 *905:36 0.000734909
234 *423:385 *858:470 5.37063e-05
235 *423:395 *1181:C 0.000289203
236 *423:395 *1499:DE 0.000492485
237 *423:395 *1659:CLK 8.6297e-06
238 *423:395 *1661:DE 7.261e-05
239 *423:395 *858:470 0.000242614
240 *423:395 *858:480 0.00132571
241 *423:395 *874:583 0.000211539
242 *423:395 *882:196 0.000168915
243 *423:462 *876:357 0.000195347
244 *423:462 *905:10 2.15348e-05
245 *423:462 *906:87 0.000541826
246 *423:462 *906:102 0.000161234
247 *941:B *423:24 1.07248e-05
248 *941:B *423:28 1.3807e-05
249 *962:A *962:B 0.000109427
250 *966:A *966:B 5.31465e-05
251 *968:A *423:335 0.000111708
252 *968:A *423:352 5.08751e-05
253 *1166:A *423:55 3.82228e-05
254 *1169:A *966:B 2.43314e-05
255 *1172:A *423:251 5.99691e-05
256 *1176:A *423:157 6.55265e-05
257 *1178:A *423:379 0
258 *1180:A *963:B 1.21831e-05
259 *1180:A *423:104 7.24743e-05
260 *1181:A *423:395 0
261 *1185:A *960:B 6.36477e-05
262 *1194:A *969:B 6.24655e-05
263 *1206:B *423:167 0
264 *1227:A *970:B 1.65872e-05
265 *1227:A *423:79 0.000557815
266 *1228:B *423:368 0.000217313
267 *1286:A *965:B 0.000105116
268 *1286:A *423:358 0.000459299
269 *1292:A *423:377 2.30636e-05
270 *1296:A *423:30 0
271 *1357:A *1357:B 0.000114594
272 *1358:A *423:46 8.36586e-06
273 *1361:A *423:462 0.000118166
274 *1362:A *423:104 9.0951e-05
275 *1364:A *1375:B 5.05502e-05
276 *1364:A *423:251 0.000220738
277 *1366:A *423:157 5.31465e-05
278 *1366:A *423:167 1.67853e-05
279 *1368:A *423:146 3.03791e-05
280 *1368:A *423:157 8.43875e-05
281 *1369:A *1369:B 6.08467e-05
282 *1371:A *423:395 7.8685e-05
283 *1376:A *1376:B 2.58616e-05
284 *1377:D *423:79 9.5067e-05
285 *1384:D *423:211 7.19142e-05
286 *1386:D *423:14 9.36125e-05
287 *1387:D *423:79 7.33369e-05
288 *1454:D *423:55 4.66118e-05
289 *1458:D *423:104 0.000739376
290 *1469:D *423:381 5.23435e-05
291 *1469:D *423:385 0.000156083
292 *1469:D *423:395 6.27301e-05
293 *1472:DE *423:24 3.86354e-05
294 *1489:D *966:B 3.15154e-05
295 *1489:DE *966:B 9.67296e-05
296 *1501:D *1373:B 0.000208599
297 *1501:D *423:395 0
298 *1512:D *423:169 0
299 *1513:D *423:352 1.91246e-05
300 *1515:D *423:79 3.00829e-05
301 *1544:D *423:169 0.00014439
302 *1551:D *423:331 3.15447e-05
303 *1551:DE *423:331 9.42407e-05
304 *1616:DE *1376:B 0.000157107
305 *1640:D *423:169 0
306 *1648:D *1360:B 6.08467e-05
307 *1648:D *423:42 0.000266846
308 *1651:D *1363:B 0.000120605
309 *1654:D *423:167 0.000311356
310 *1656:D *423:146 3.91901e-05
311 *1658:D *423:381 5.12484e-05
312 *2262:A *1376:B 6.08467e-05
313 *2262:A *423:24 0
314 *2267:A *1376:B 0.000112367
315 *7:86 *963:B 4.99779e-05
316 *8:33 *1373:B 0.000208599
317 *9:22 *1374:B 1.37421e-05
318 *9:33 *1374:B 4.28379e-05
319 *9:44 *1374:B 5.39635e-06
320 *12:30 *423:55 0.000187307
321 *16:36 *963:B 4.19401e-06
322 *17:23 *1365:B 0
323 *17:33 *964:B 6.50586e-05
324 *20:21 *1363:B 9.3688e-05
325 *20:34 *423:169 0
326 *20:42 *423:169 0
327 *22:35 *969:B 3.14978e-05
328 *25:23 *423:377 0.000301926
329 *26:15 *423:36 1.5714e-05
330 *26:22 *1367:B 0.000109427
331 *26:26 *423:36 0
332 *27:44 *966:B 0.000525732
333 *29:28 *1363:B 0.000338737
334 *68:239 *1375:B 0
335 *68:260 *423:79 1.88422e-05
336 *68:302 *423:42 2.02035e-05
337 *68:304 *423:65 3.6509e-05
338 *68:306 *423:65 0.000316572
339 *68:308 *423:65 0.00031708
340 *69:65 *423:94 0
341 *69:65 *423:104 0
342 *69:75 *423:104 0
343 *69:81 *423:104 0
344 *69:183 *423:30 2.73295e-05
345 *69:187 *423:30 0.00016828
346 *69:187 *423:36 0.000306912
347 *69:187 *423:42 3.44461e-05
348 *69:212 *423:65 0
349 *69:214 *423:65 0
350 *69:220 *423:65 0
351 *70:44 *1375:B 0
352 *76:8 *423:12 6.08467e-05
353 *77:16 *423:12 0.000133887
354 *83:44 *423:24 9.62257e-05
355 *121:42 *1376:B 0.00242275
356 *122:29 *423:24 0
357 *124:133 *1369:B 0.000573487
358 *124:174 *423:377 0.000509092
359 *124:242 *966:B 0.00045465
360 *402:14 *423:94 4.61271e-05
361 *402:14 *423:104 6.55265e-05
362 *417:268 *969:B 0.000115599
363 *418:20 *423:14 0.000330685
364 *418:30 *423:14 1.72347e-05
365 *418:30 *423:20 0.000115508
366 *418:30 *423:24 2.12423e-05
367 *418:30 *423:28 0.000129225
368 *418:30 *423:30 3.20407e-05
369 *418:50 *423:42 0
370 *418:50 *423:46 0
371 *418:180 *962:B 0.000355514
372 *418:180 *423:55 2.66898e-05
373 *418:215 *423:167 0
374 *418:320 *969:B 6.08467e-05
375 *418:320 *423:331 0.000948521
376 *418:360 *423:331 2.34243e-05
377 *418:360 *423:335 0.000380315
378 *418:360 *423:352 2.16355e-05
379 *418:443 *1365:B 0.000203971
380 *418:459 *423:379 0
381 *418:461 *423:381 0
382 *418:518 *1365:B 0.00120578
383 *422:16 *423:14 0.000494632
*RES
1 *948:X *423:12 36.8496 
2 *423:12 *423:14 19.6878 
3 *423:14 *423:20 8.02525 
4 *423:20 *423:24 25.8488 
5 *423:24 *423:28 3.3953 
6 *423:28 *423:30 17.6116 
7 *423:30 *423:36 18.6919 
8 *423:36 *423:42 17.5788 
9 *423:42 *423:46 14.2218 
10 *423:46 *1358:B 9.24915 
11 *423:46 *423:55 17.3856 
12 *423:55 *423:65 42.4644 
13 *423:65 *423:71 12.4593 
14 *423:71 *423:79 45.3443 
15 *423:79 *970:B 9.97254 
16 *423:79 *423:94 20.9696 
17 *423:94 *423:104 40.6275 
18 *423:104 *963:B 27.3804 
19 *423:104 *1372:B 13.7491 
20 *423:94 *1362:B 9.24915 
21 *423:71 *960:B 14.4725 
22 *423:65 *423:146 20.7132 
23 *423:146 *1368:B 9.24915 
24 *423:146 *423:157 23.1004 
25 *423:157 *423:167 40.2733 
26 *423:167 *423:169 22.8022 
27 *423:169 *423:175 7.5781 
28 *423:175 *1374:B 19.9881 
29 *423:175 *1357:B 37.2852 
30 *423:169 *423:211 7.44181 
31 *423:211 *1363:B 38.9397 
32 *423:211 *967:B 9.24915 
33 *423:157 *1366:B 9.24915 
34 *423:55 *962:B 24.3922 
35 *423:42 *423:251 25.7437 
36 *423:251 *1375:B 42.6315 
37 *423:251 *1364:B 9.24915 
38 *423:36 *1360:B 9.97254 
39 *423:30 *1367:B 32.7745 
40 *423:28 *1376:B 44.3006 
41 *423:24 *949:A_N 13.7491 
42 *423:20 *423:315 28.8215 
43 *423:315 *423:331 45.8467 
44 *423:331 *423:335 10.7694 
45 *423:335 *968:B 9.24915 
46 *423:335 *423:352 16.3124 
47 *423:352 *423:358 17.519 
48 *423:358 *423:362 21.6963 
49 *423:362 *423:364 3.70063 
50 *423:364 *423:368 41.0056 
51 *423:368 *971:B 9.24915 
52 *423:368 *423:377 24.6345 
53 *423:377 *423:379 16.7811 
54 *423:379 *423:381 17.1963 
55 *423:381 *423:385 3.81055 
56 *423:385 *423:395 41.1822 
57 *423:395 *1371:B 9.24915 
58 *423:385 *1373:B 16.1364 
59 *423:381 *1369:B 37.2354 
60 *423:379 *1370:B 13.7491 
61 *423:377 *961:B 17.2421 
62 *423:364 *1365:B 23.8218 
63 *423:362 *964:B 14.4725 
64 *423:358 *423:462 16.2523 
65 *423:462 *966:B 46.9104 
66 *423:462 *1361:B 9.24915 
67 *423:352 *965:B 15.7888 
68 *423:315 *1359:B 19.7337 
69 *423:14 *969:B 16.691 
*END

*D_NET *424 0.0827251
*CONN
*I *1194:C I *D sky130_fd_sc_hd__and3_1
*I *1290:C I *D sky130_fd_sc_hd__and3_1
*I *2280:A I *D sky130_fd_sc_hd__buf_16
*I *953:B I *D sky130_fd_sc_hd__nand2_1
*I *1175:C I *D sky130_fd_sc_hd__and3_1
*I *1271:C I *D sky130_fd_sc_hd__and3_1
*I *1264:C I *D sky130_fd_sc_hd__and3_1
*I *1187:C I *D sky130_fd_sc_hd__and3_1
*I *1283:C I *D sky130_fd_sc_hd__and3_1
*I *1176:C I *D sky130_fd_sc_hd__and3_1
*I *1272:C I *D sky130_fd_sc_hd__and3_1
*I *1185:C I *D sky130_fd_sc_hd__and3_1
*I *1171:C I *D sky130_fd_sc_hd__and3_1
*I *1288:C I *D sky130_fd_sc_hd__and3_1
*I *1182:C I *D sky130_fd_sc_hd__and3_1
*I *1278:C I *D sky130_fd_sc_hd__and3_1
*I *1192:C I *D sky130_fd_sc_hd__and3_1
*I *1267:C I *D sky130_fd_sc_hd__and3_1
*I *1188:C I *D sky130_fd_sc_hd__and3_1
*I *1284:C I *D sky130_fd_sc_hd__and3_1
*I *1281:C I *D sky130_fd_sc_hd__and3_1
*I *1262:C I *D sky130_fd_sc_hd__and3_1
*I *1166:C I *D sky130_fd_sc_hd__and3_1
*I *1168:C I *D sky130_fd_sc_hd__and3_1
*I *1268:C I *D sky130_fd_sc_hd__and3_1
*I *1172:C I *D sky130_fd_sc_hd__and3_1
*I *1183:C I *D sky130_fd_sc_hd__and3_1
*I *1279:C I *D sky130_fd_sc_hd__and3_1
*I *1195:C I *D sky130_fd_sc_hd__and3_1
*I *1291:C I *D sky130_fd_sc_hd__and3_1
*I *1266:C I *D sky130_fd_sc_hd__and3_1
*I *1170:C I *D sky130_fd_sc_hd__and3_1
*I *1180:C I *D sky130_fd_sc_hd__and3_1
*I *1276:C I *D sky130_fd_sc_hd__and3_1
*I *951:B I *D sky130_fd_sc_hd__nand2_1
*I *950:X O *D sky130_fd_sc_hd__lpflow_isobufsrc_8
*CAP
1 *1194:C 0.000369346
2 *1290:C 0.000528272
3 *2280:A 0.000611869
4 *953:B 3.58004e-05
5 *1175:C 0
6 *1271:C 2.08468e-05
7 *1264:C 0.000216058
8 *1187:C 0.000165694
9 *1283:C 0.000537705
10 *1176:C 0.000174342
11 *1272:C 0
12 *1185:C 9.56579e-05
13 *1171:C 5.41953e-05
14 *1288:C 0.000112995
15 *1182:C 0.000570051
16 *1278:C 0
17 *1192:C 0.000287419
18 *1267:C 0.000137927
19 *1188:C 0
20 *1284:C 0.000130391
21 *1281:C 0.000157796
22 *1262:C 0.000199181
23 *1166:C 4.89248e-05
24 *1168:C 0
25 *1268:C 2.88953e-05
26 *1172:C 7.95835e-05
27 *1183:C 0.000142865
28 *1279:C 0
29 *1195:C 2.14191e-05
30 *1291:C 0.000255223
31 *1266:C 0.000135435
32 *1170:C 0.000257512
33 *1180:C 1.51081e-05
34 *1276:C 0.000386346
35 *951:B 0
36 *950:X 0.000542682
37 *424:456 0.00180796
38 *424:432 0.00142605
39 *424:421 0.00134736
40 *424:383 0.00159327
41 *424:368 0.00152459
42 *424:364 0.00168412
43 *424:340 0.00163992
44 *424:325 0.00171998
45 *424:297 0.0012471
46 *424:291 0.00326064
47 *424:278 0.00200965
48 *424:272 0.00222994
49 *424:242 0.000314066
50 *424:240 0.00132415
51 *424:236 0.00122467
52 *424:234 0.00100502
53 *424:223 0.00174509
54 *424:113 0.000777124
55 *424:107 0.00116661
56 *424:99 0.00168749
57 *424:89 0.00151801
58 *424:83 0.000551748
59 *424:73 0.000781603
60 *424:67 0.00121163
61 *424:61 0.000784092
62 *424:55 0.00031404
63 *424:53 0.0020457
64 *424:51 0.00122839
65 *424:45 0.000691133
66 *424:35 0.000895392
67 *424:33 0.000856278
68 *424:20 0.000599274
69 *424:10 0.0015273
70 *1170:C *1170:B 6.71902e-05
71 *1170:C *1490:CLK 6.27718e-05
72 *1170:C *1490:DE 3.64999e-06
73 *1170:C *894:145 3.42463e-05
74 *1170:C *894:156 1.85244e-05
75 *1176:C *874:338 7.26748e-05
76 *1176:C *903:230 2.48716e-05
77 *1180:C *1180:B 1.90867e-06
78 *1182:C *1502:CLK 4.28856e-07
79 *1182:C *891:107 4.99247e-05
80 *1182:C *891:120 1.32043e-05
81 *1183:C *868:10 0.00011818
82 *1183:C *884:185 0.000569001
83 *1185:C *1185:B 0.00021543
84 *1187:C *1187:B 6.73917e-07
85 *1192:C *1384:DE 0.000169169
86 *1192:C *1576:DE 1.27831e-06
87 *1192:C *1662:DE 9.18559e-06
88 *1192:C *858:85 9.25476e-05
89 *1192:C *874:518 8.7264e-05
90 *1194:C *879:16 2.89976e-05
91 *1262:C *1550:CLK 0.000159917
92 *1262:C *1550:DE 0
93 *1262:C *857:45 0.000132817
94 *1262:C *884:210 0.000127431
95 *1264:C *865:336 8.73569e-05
96 *1266:C *894:229 3.37892e-05
97 *1267:C *1267:B 0
98 *1267:C *1395:CLK 1.10304e-05
99 *1268:C *873:55 7.58289e-06
100 *1271:C *884:354 4.55234e-05
101 *1276:C *1082:A0 0.000145115
102 *1276:C *894:10 1.94224e-05
103 *1276:C *894:16 0.000135054
104 *1283:C *858:18 9.00198e-05
105 *1283:C *865:346 0.000305432
106 *1284:C *1284:B 6.93171e-05
107 *1290:C *1386:CLK 1.43848e-05
108 *1290:C *1690:D 0.00039682
109 *1291:C *1291:B 6.73917e-07
110 *424:10 *1681:C 0.00017884
111 *424:10 *1690:CLK 6.50586e-05
112 *424:10 *1690:D 0.000599877
113 *424:10 *830:8 0.000163895
114 *424:33 *952:B 7.72302e-05
115 *424:35 *952:B 0.000258124
116 *424:35 *954:B 0.000468591
117 *424:35 *1258:C 0.00015409
118 *424:45 *1057:A1 0.000110169
119 *424:51 *1057:A1 2.27677e-05
120 *424:51 *1463:CLK 0
121 *424:51 *884:354 6.14756e-06
122 *424:53 *865:16 0
123 *424:53 *865:30 6.97465e-06
124 *424:53 *884:330 1.2693e-05
125 *424:53 *884:339 0.00017428
126 *424:53 *884:354 5.94249e-05
127 *424:55 *865:30 5.66868e-06
128 *424:61 *884:319 1.77085e-05
129 *424:67 *1095:A2 4.84905e-05
130 *424:67 *2272:A 6.73439e-05
131 *424:67 *2288:A 0.0001438
132 *424:67 *873:55 0
133 *424:67 *884:14 0.000257345
134 *424:67 *884:319 0.000185846
135 *424:67 *904:26 5.83021e-05
136 *424:73 *2272:A 1.07248e-05
137 *424:73 *868:10 0
138 *424:73 *868:14 0
139 *424:73 *903:67 7.28719e-05
140 *424:73 *904:36 0
141 *424:83 *1195:B 1.52239e-05
142 *424:83 *865:57 0.000106605
143 *424:83 *865:67 4.10737e-05
144 *424:83 *904:36 0.000482855
145 *424:89 *1195:B 1.62739e-05
146 *424:89 *858:197 0
147 *424:89 *884:48 0.00025389
148 *424:99 *1579:CLK 3.82228e-05
149 *424:99 *858:197 0
150 *424:99 *858:213 0.000274216
151 *424:99 *884:48 0.000103202
152 *424:99 *884:50 0.00013262
153 *424:99 *903:79 0.000257009
154 *424:107 *2298:A 5.62562e-05
155 *424:107 *865:79 0.000280311
156 *424:107 *865:102 4.10737e-05
157 *424:107 *903:79 0.000101148
158 *424:107 *903:85 0.000443858
159 *424:113 *1081:A0 0
160 *424:113 *1082:A0 6.87227e-05
161 *424:113 *894:10 0.000274715
162 *424:113 *894:145 0.000125888
163 *424:113 *904:62 0
164 *424:223 *1040:A0 0.00039091
165 *424:223 *1168:B 1.4091e-06
166 *424:223 *1556:CLK 6.50727e-05
167 *424:223 *1556:DE 8.11133e-05
168 *424:234 *1488:DE 0
169 *424:234 *1550:DE 0.000179318
170 *424:234 *865:315 5.05252e-05
171 *424:234 *877:21 0.000274143
172 *424:234 *884:268 0.0001376
173 *424:236 *1550:DE 6.79599e-05
174 *424:236 *865:315 7.14746e-05
175 *424:240 *1550:DE 0.000289618
176 *424:240 *865:315 0.00028602
177 *424:272 *1010:A0 0
178 *424:272 *1010:A1 0.000151841
179 *424:272 *1011:A1 3.6102e-05
180 *424:272 *1012:A0 0
181 *424:272 *1012:A1 0
182 *424:272 *880:51 0
183 *424:272 *880:53 0
184 *424:278 *1569:DE 2.02035e-05
185 *424:278 *880:53 0
186 *424:278 *880:55 0
187 *424:278 *880:59 0
188 *424:291 *1120:A1 6.23012e-05
189 *424:291 *880:59 0
190 *424:297 *1120:A1 0.000110865
191 *424:297 *1122:A1 0.000100769
192 *424:297 *524:16 2.58616e-05
193 *424:297 *868:96 1.00885e-05
194 *424:297 *880:59 0
195 *424:325 *1491:DE 1.54863e-05
196 *424:325 *868:96 0.000355463
197 *424:340 *1035:A3 7.92757e-06
198 *424:364 *1035:S0 0.000202522
199 *424:364 *1035:S1 0
200 *424:364 *1036:A0 8.36586e-06
201 *424:364 *1171:B 7.08532e-05
202 *424:364 *1480:DE 0.00149335
203 *424:368 *874:518 7.16112e-05
204 *424:368 *874:535 7.6648e-05
205 *424:383 *1140:A3 1.20472e-05
206 *424:432 *1185:B 0.000735547
207 *962:A *1283:C 7.66391e-06
208 *962:B *1283:C 4.24629e-05
209 *962:B *424:272 0.000256285
210 *1120:S0 *1284:C 9.73599e-06
211 *1120:S0 *424:297 0.000400743
212 *1120:S1 *424:291 0
213 *1155:S0 *424:67 0
214 *1155:S0 *424:73 0
215 *1171:A *1171:C 7.30104e-06
216 *1171:A *1267:C 2.89815e-05
217 *1171:A *424:325 3.61531e-05
218 *1171:A *424:340 0.000704819
219 *1175:A *424:51 6.54619e-05
220 *1176:A *1176:C 6.27782e-05
221 *1182:A *1182:C 0.000306769
222 *1183:A *1183:C 0.000153808
223 *1195:A *424:89 0.000107496
224 *1212:B *1276:C 1.69592e-05
225 *1219:A *1187:C 9.32983e-05
226 *1219:A *424:456 0.000515076
227 *1264:A *1264:C 0.000207266
228 *1264:A *424:223 4.66492e-05
229 *1266:A *424:99 0.00044364
230 *1271:B *424:35 8.62625e-06
231 *1271:B *424:45 0.000364017
232 *1278:A *1182:C 0.000202915
233 *1278:A *424:383 0.000122895
234 *1283:A *1283:C 0.000304844
235 *1288:A *1288:C 6.50727e-05
236 *1288:A *424:364 0.000171273
237 *1290:A *1290:C 7.85066e-05
238 *1291:A *1291:C 7.63448e-05
239 *1299:A *424:291 0
240 *1360:A *424:223 2.51237e-05
241 *1360:B *424:223 4.88955e-05
242 *1374:B *1182:C 7.26606e-05
243 *1386:D *1290:C 0.000103708
244 *1456:D *424:234 1.64383e-05
245 *1459:D *1171:C 8.76937e-05
246 *1459:D *424:340 0.000206696
247 *1460:D *424:53 0.000348795
248 *1460:D *424:55 0.000392524
249 *1460:D *424:61 9.90619e-05
250 *1468:D *1276:C 9.98172e-05
251 *1468:D *424:113 8.52802e-05
252 *1471:D *424:67 6.73023e-05
253 *1480:D *1192:C 3.75063e-05
254 *1480:D *424:368 9.46247e-05
255 *1488:D *424:234 0
256 *1490:D *1170:C 1.91246e-05
257 *1491:D *424:325 7.12957e-05
258 *1495:D *424:53 3.58321e-05
259 *1512:D *424:364 1.39721e-05
260 *1550:D *1262:C 0.000215908
261 *1556:D *424:55 0.00028505
262 *1556:D *424:223 0.000190242
263 *1564:D *1276:C 5.31465e-05
264 *1567:D *424:73 1.79672e-05
265 *1569:D *1281:C 9.44631e-06
266 *1569:D *424:278 3.89873e-05
267 *1576:D *1192:C 0
268 *1648:D *424:223 0.000199199
269 *1655:D *424:53 0.00050598
270 *2276:A *1290:C 2.53992e-05
271 *15:82 *1187:C 6.08467e-05
272 *26:38 *424:223 6.50586e-05
273 *29:75 *424:291 0
274 *68:20 *2280:A 1.81618e-05
275 *68:20 *424:20 5.1493e-06
276 *68:20 *424:33 0.000119049
277 *68:71 *2280:A 6.36477e-05
278 *68:71 *424:35 0
279 *68:73 *424:35 0
280 *68:77 *424:35 0
281 *68:260 *424:99 0.000327623
282 *68:264 *424:99 9.2346e-06
283 *68:264 *424:107 0.00022182
284 *69:16 *424:20 0.000137993
285 *69:16 *424:33 0
286 *69:138 *424:73 3.87967e-05
287 *69:138 *424:83 4.68492e-06
288 *69:212 *424:272 0.000374847
289 *69:214 *424:272 0.000743286
290 *69:220 *424:272 0.000863104
291 *69:220 *424:278 0.000308233
292 *69:226 *424:278 0.00112523
293 *70:12 *424:20 0.000209899
294 *70:63 *424:99 0.000596024
295 *76:12 *424:20 0.000209899
296 *76:22 *424:20 0.000331395
297 *76:22 *424:33 6.27782e-05
298 *83:44 *1194:C 0.00022436
299 *123:10 *424:35 3.21432e-05
300 *123:10 *424:45 7.30688e-05
301 *123:16 *424:45 3.12396e-05
302 *123:16 *424:53 0
303 *123:28 *424:55 0
304 *123:28 *424:61 0
305 *123:28 *424:67 0
306 *123:43 *424:456 0.000321972
307 *127:20 *424:51 0.000229151
308 *418:72 *424:83 5.04829e-06
309 *418:87 *424:83 0.000143311
310 *418:87 *424:99 9.34122e-05
311 *418:119 *1284:C 1.57635e-05
312 *418:180 *1166:C 0.000188433
313 *418:180 *424:242 0.000345222
314 *418:180 *424:272 0.000575585
315 *418:207 *424:432 1.44237e-05
316 *418:230 *1288:C 2.45274e-05
317 *418:320 *1194:C 2.23105e-05
318 *421:45 *1290:C 6.27614e-05
319 *421:51 *1290:C 0
320 *421:51 *424:33 0
321 *421:51 *424:35 0
322 *421:137 *1290:C 6.12686e-06
323 *423:20 *1194:C 2.23124e-05
324 *423:24 *1194:C 3.63743e-05
325 *423:42 *424:223 0.000271058
326 *423:55 *1166:C 7.40963e-05
327 *423:55 *424:242 0.000152969
328 *423:55 *424:272 0.000129101
329 *423:104 *424:113 0
330 *423:157 *1176:C 1.93829e-05
331 *423:251 *1172:C 3.24533e-05
332 *423:315 *1194:C 2.20702e-05
*RES
1 *950:X *424:10 26.249 
2 *424:10 *424:20 23.3628 
3 *424:20 *951:B 9.24915 
4 *424:20 *424:33 9.29512 
5 *424:33 *424:35 16.3658 
6 *424:35 *424:45 16.7111 
7 *424:45 *424:51 11.5831 
8 *424:51 *424:53 26.3319 
9 *424:53 *424:55 7.23027 
10 *424:55 *424:61 3.56628 
11 *424:61 *424:67 18.1001 
12 *424:67 *424:73 14.9909 
13 *424:73 *424:83 19.2296 
14 *424:83 *424:89 11.8309 
15 *424:89 *424:99 44.3948 
16 *424:99 *424:107 17.0665 
17 *424:107 *424:113 11.2484 
18 *424:113 *1276:C 24.4556 
19 *424:113 *1180:C 14.0144 
20 *424:107 *1170:C 20.0917 
21 *424:99 *1266:C 15.6782 
22 *424:89 *1291:C 17.342 
23 *424:83 *1195:C 9.86403 
24 *424:73 *1279:C 9.24915 
25 *424:67 *1183:C 20.8625 
26 *424:61 *1172:C 15.413 
27 *424:55 *1268:C 14.2796 
28 *424:53 *424:223 28.999 
29 *424:223 *1168:C 9.24915 
30 *424:223 *424:234 22.4682 
31 *424:234 *424:236 1.41674 
32 *424:236 *424:240 9.65401 
33 *424:240 *424:242 4.05102 
34 *424:242 *1166:C 11.4434 
35 *424:242 *1262:C 25.029 
36 *424:240 *424:272 46.7915 
37 *424:272 *424:278 32.7805 
38 *424:278 *1281:C 17.0527 
39 *424:278 *424:291 19.1749 
40 *424:291 *424:297 23.3974 
41 *424:297 *1284:C 20.8113 
42 *424:297 *1188:C 9.24915 
43 *424:291 *424:325 29.5814 
44 *424:325 *1267:C 16.6769 
45 *424:325 *424:340 12.9878 
46 *424:340 *424:364 44.7491 
47 *424:364 *424:368 11.315 
48 *424:368 *1192:C 22.3432 
49 *424:368 *424:383 19.1849 
50 *424:383 *1278:C 9.24915 
51 *424:383 *1182:C 28.3225 
52 *424:364 *1288:C 11.1782 
53 *424:340 *1171:C 11.0335 
54 *424:272 *424:421 4.5 
55 *424:421 *1185:C 11.9981 
56 *424:421 *424:432 20.8097 
57 *424:432 *1272:C 9.24915 
58 *424:432 *1176:C 21.5949 
59 *424:236 *424:456 22.4161 
60 *424:456 *1283:C 30.1843 
61 *424:456 *1187:C 11.7328 
62 *424:234 *1264:C 17.342 
63 *424:51 *1271:C 14.2796 
64 *424:45 *1175:C 9.24915 
65 *424:35 *953:B 14.4725 
66 *424:33 *2280:A 19.464 
67 *424:10 *1290:C 32.9896 
68 *2280:A *1194:C 37.2473 
*END

*D_NET *425 0.00182809
*CONN
*I *952:B I *D sky130_fd_sc_hd__nand2_1
*I *951:Y O *D sky130_fd_sc_hd__nand2_1
*CAP
1 *952:B 0.000568454
2 *951:Y 0.000568454
3 *952:B *1258:C 0.000165766
4 *1674:B *952:B 0
5 *69:16 *952:B 0.000151427
6 *69:20 *952:B 3.25087e-05
7 *76:22 *952:B 6.12686e-06
8 *424:33 *952:B 7.72302e-05
9 *424:35 *952:B 0.000258124
*RES
1 *951:Y *952:B 44.7269 
*END

*D_NET *426 0.00122107
*CONN
*I *954:B I *D sky130_fd_sc_hd__nand2_4
*I *953:Y O *D sky130_fd_sc_hd__nand2_1
*CAP
1 *954:B 0.000358997
2 *953:Y 0.000358997
3 *954:B *1258:C 3.44818e-05
4 *68:77 *954:B 0
5 *424:35 *954:B 0.000468591
*RES
1 *953:Y *954:B 37.6676 
*END

*D_NET *427 0.0929039
*CONN
*I *1321:C I *D sky130_fd_sc_hd__and3_1
*I *1318:C I *D sky130_fd_sc_hd__and3_1
*I *1319:C I *D sky130_fd_sc_hd__and3_1
*I *1301:C I *D sky130_fd_sc_hd__and3_1
*I *1250:C I *D sky130_fd_sc_hd__and3_1
*I *1314:C I *D sky130_fd_sc_hd__and3_1
*I *1242:C I *D sky130_fd_sc_hd__and3_1
*I *1309:C I *D sky130_fd_sc_hd__and3_1
*I *1307:C I *D sky130_fd_sc_hd__and3_1
*I *1243:C I *D sky130_fd_sc_hd__and3_1
*I *1293:C I *D sky130_fd_sc_hd__and3_1
*I *1229:C I *D sky130_fd_sc_hd__and3_1
*I *1245:C I *D sky130_fd_sc_hd__and3_1
*I *1306:C I *D sky130_fd_sc_hd__and3_1
*I *1237:C I *D sky130_fd_sc_hd__and3_1
*I *1255:C I *D sky130_fd_sc_hd__and3_1
*I *1297:C I *D sky130_fd_sc_hd__and3_1
*I *1233:C I *D sky130_fd_sc_hd__and3_1
*I *1254:C I *D sky130_fd_sc_hd__and3_1
*I *1257:C I *D sky130_fd_sc_hd__and3_1
*I *1295:C I *D sky130_fd_sc_hd__and3_1
*I *1231:C I *D sky130_fd_sc_hd__and3_1
*I *958:B I *D sky130_fd_sc_hd__nand2_1
*I *2279:A I *D sky130_fd_sc_hd__buf_16
*I *1239:C I *D sky130_fd_sc_hd__and3_1
*I *1300:C I *D sky130_fd_sc_hd__and3_1
*I *1247:C I *D sky130_fd_sc_hd__and3_1
*I *1311:C I *D sky130_fd_sc_hd__and3_1
*I *1323:C I *D sky130_fd_sc_hd__and3_1
*I *1259:C I *D sky130_fd_sc_hd__and3_1
*I *1313:C I *D sky130_fd_sc_hd__and3_1
*I *1316:C I *D sky130_fd_sc_hd__and3_1
*I *1252:C I *D sky130_fd_sc_hd__and3_1
*I *1249:C I *D sky130_fd_sc_hd__and3_1
*I *1298:C I *D sky130_fd_sc_hd__and3_1
*I *1234:C I *D sky130_fd_sc_hd__and3_1
*I *1308:C I *D sky130_fd_sc_hd__and3_1
*I *1244:C I *D sky130_fd_sc_hd__and3_1
*I *1236:C I *D sky130_fd_sc_hd__and3_1
*I *1303:C I *D sky130_fd_sc_hd__and3_1
*I *955:X O *D sky130_fd_sc_hd__lpflow_isobufsrc_8
*CAP
1 *1321:C 3.14411e-05
2 *1318:C 4.95454e-05
3 *1319:C 5.51816e-05
4 *1301:C 6.33024e-05
5 *1250:C 0
6 *1314:C 0
7 *1242:C 0.00024662
8 *1309:C 7.00003e-05
9 *1307:C 6.65972e-05
10 *1243:C 0
11 *1293:C 3.67084e-05
12 *1229:C 0.00025847
13 *1245:C 0
14 *1306:C 0
15 *1237:C 0
16 *1255:C 0.000689463
17 *1297:C 0.000365654
18 *1233:C 0
19 *1254:C 0
20 *1257:C 0.000100585
21 *1295:C 0
22 *1231:C 7.58192e-05
23 *958:B 5.35986e-05
24 *2279:A 0.000808208
25 *1239:C 2.88953e-05
26 *1300:C 0
27 *1247:C 9.45836e-05
28 *1311:C 0
29 *1323:C 1.12612e-05
30 *1259:C 3.48074e-05
31 *1313:C 0.000205156
32 *1316:C 6.49835e-05
33 *1252:C 0.000214524
34 *1249:C 0
35 *1298:C 1.97539e-05
36 *1234:C 0
37 *1308:C 1.65675e-05
38 *1244:C 0.000541072
39 *1236:C 8.25117e-05
40 *1303:C 2.9301e-05
41 *955:X 0.00129353
42 *427:536 0.00109938
43 *427:530 0.00116669
44 *427:524 0.000920944
45 *427:512 0.00123203
46 *427:497 0.00095258
47 *427:482 0.00095135
48 *427:472 0.00181557
49 *427:458 0.00123414
50 *427:456 0.000867071
51 *427:442 0.00109684
52 *427:431 0.00195856
53 *427:421 0.00159453
54 *427:404 0.00155286
55 *427:373 0.00141117
56 *427:366 0.00166328
57 *427:343 0.00169973
58 *427:333 0.00174049
59 *427:316 0.00169751
60 *427:312 0.00109789
61 *427:301 0.00118762
62 *427:278 0.000558479
63 *427:265 0.000798017
64 *427:245 0.00146995
65 *427:155 0.00148356
66 *427:139 0.00147434
67 *427:130 0.00141601
68 *427:88 0.00107159
69 *427:82 0.00100401
70 *427:76 0.00070062
71 *427:74 0.00200553
72 *427:68 0.000597542
73 *427:64 0.000943745
74 *427:58 0.00107766
75 *427:52 0.000884706
76 *427:41 0.00108655
77 *427:31 0.000795987
78 *427:25 0.000702116
79 *427:14 0.000840917
80 *427:10 0.00194389
81 *427:8 0.00151038
82 *958:B *1231:B 6.64392e-05
83 *958:B *872:37 0.000114584
84 *1229:C *866:84 2.29693e-05
85 *1229:C *877:283 2.53992e-05
86 *1229:C *891:39 0.000190001
87 *1229:C *891:56 2.18922e-05
88 *1231:C *1231:B 5.67473e-06
89 *1242:C *1071:S0 0.000126968
90 *1242:C *1338:C 9.77424e-05
91 *1242:C *890:265 0.000181027
92 *1244:C *1009:A2 0.000161818
93 *1244:C *1084:A2 3.89122e-05
94 *1252:C *1604:CLK 0.000192906
95 *1252:C *874:103 9.00257e-05
96 *1255:C *1026:A0 7.86847e-05
97 *1255:C *1026:A1 9.01028e-05
98 *1255:C *1255:B 0
99 *1255:C *1351:C 0
100 *1257:C *1641:CLK 4.26946e-05
101 *1293:C *1325:B 1.36606e-05
102 *1293:C *874:600 5.0089e-06
103 *1297:C *976:C 3.23076e-06
104 *1297:C *870:35 1.02671e-05
105 *1301:C *881:482 1.21499e-05
106 *1307:C *1307:B 3.67841e-05
107 *1309:C *881:433 0.000300682
108 *1313:C *874:83 0
109 *1313:C *903:69 0
110 *1313:C *904:147 2.50389e-05
111 *1318:C *1542:CLK 6.34813e-06
112 *1319:C *870:56 2.23105e-05
113 *1319:C *888:86 0
114 *2279:A *946:B 0.000749717
115 *2279:A *429:16 0.00037705
116 *427:10 *1056:A3 2.11774e-05
117 *427:10 *1677:B 0.00026952
118 *427:10 *1677:D 0
119 *427:10 *1678:A2 0.000293368
120 *427:10 *1678:B1 0.000121157
121 *427:10 *824:10 9.64565e-05
122 *427:25 *873:16 2.18698e-05
123 *427:31 *1524:DE 8.84664e-05
124 *427:41 *1588:CLK 0.000341403
125 *427:41 *857:363 8.36586e-06
126 *427:41 *873:30 9.2346e-06
127 *427:41 *873:32 4.86235e-05
128 *427:41 *873:42 7.49933e-05
129 *427:52 *505:16 0
130 *427:52 *857:363 0
131 *427:52 *869:12 0.000236099
132 *427:58 *990:C 0.000171288
133 *427:58 *857:363 0
134 *427:58 *869:12 3.58321e-05
135 *427:58 *869:14 3.98548e-05
136 *427:64 *1014:A2 0
137 *427:64 *430:396 0
138 *427:64 *497:18 0
139 *427:64 *856:30 0
140 *427:64 *856:32 0
141 *427:64 *856:42 0
142 *427:64 *869:16 3.2832e-05
143 *427:68 *1259:B 3.87501e-05
144 *427:68 *869:16 9.22013e-06
145 *427:74 *1259:B 9.47963e-05
146 *427:74 *430:400 0
147 *427:82 *894:300 5.95028e-05
148 *427:88 *1009:A2 0.000254804
149 *427:88 *1144:A2 0.000273277
150 *427:88 *1532:DE 0
151 *427:88 *894:300 4.13355e-05
152 *427:155 *1604:CLK 4.4226e-05
153 *427:155 *1633:CLK 0
154 *427:155 *874:83 0
155 *427:155 *874:99 0.000154145
156 *427:155 *874:103 0.000136443
157 *427:155 *894:212 8.67636e-05
158 *427:155 *894:225 0.000253374
159 *427:155 *903:69 0
160 *427:245 *946:A 4.89251e-05
161 *427:245 *946:B 7.28933e-05
162 *427:245 *1687:A4 1.37939e-05
163 *427:245 *429:16 3.5063e-05
164 *427:245 *886:8 5.66878e-05
165 *427:265 *1231:B 0
166 *427:265 *1327:C 0.000166514
167 *427:265 *429:16 0.000607244
168 *427:265 *875:20 7.20028e-05
169 *427:278 *1231:B 0
170 *427:278 *1327:C 8.0389e-05
171 *427:301 *1327:C 4.58247e-05
172 *427:312 *864:20 0.000105987
173 *427:316 *1609:CLK 0
174 *427:333 *1000:B 7.50872e-05
175 *427:333 *1146:A3 7.61533e-06
176 *427:333 *1641:CLK 0.000136929
177 *427:343 *1254:B 2.65268e-05
178 *427:366 *1131:A1 1.4091e-06
179 *427:366 *1131:S0 7.13655e-06
180 *427:366 *1606:CLK 1.85244e-05
181 *427:366 *861:44 2.63051e-05
182 *427:366 *864:53 0.000191395
183 *427:366 *878:129 0.000159926
184 *427:373 *878:129 7.92757e-06
185 *427:404 *1026:A1 0.000332475
186 *427:404 *1329:C 3.39433e-05
187 *427:404 *864:61 0.00012601
188 *427:404 *870:35 6.27718e-05
189 *427:404 *870:56 0.000208621
190 *427:404 *878:129 1.00901e-05
191 *427:404 *878:142 3.04232e-05
192 *427:421 *870:56 0.000253367
193 *427:431 *1479:DE 0
194 *427:431 *870:62 0
195 *427:431 *878:148 0
196 *427:431 *878:152 0.000142522
197 *427:431 *878:154 1.35043e-05
198 *427:431 *888:62 0
199 *427:431 *888:75 0
200 *427:442 *870:76 0.000111719
201 *427:456 *880:425 0.000293947
202 *427:472 *1186:C 0
203 *427:472 *1466:DE 0.000233708
204 *427:472 *876:301 0
205 *427:472 *881:405 0.000137404
206 *427:472 *906:127 0.000156502
207 *427:482 *1306:B 5.04054e-06
208 *427:482 *465:24 0.000350086
209 *427:482 *881:405 0.000195313
210 *427:497 *1245:B 7.49316e-05
211 *427:497 *870:104 7.14746e-05
212 *427:497 *870:106 0.000316675
213 *427:512 *1341:C 0.000374367
214 *427:512 *880:275 0.000385779
215 *427:524 *487:14 0
216 *427:524 *489:12 0.000127179
217 *427:524 *874:652 0.000404689
218 *427:524 *874:667 6.48865e-05
219 *427:524 *880:275 0.000142209
220 *427:530 *1075:A0 6.87762e-05
221 *427:530 *489:12 0.000125977
222 *427:530 *891:269 3.35538e-05
223 *427:536 *1075:A1 6.52156e-05
224 *427:536 *1075:A3 0
225 *427:536 *1075:S1 0
226 *427:536 *1275:C 0
227 *427:536 *1531:CLK 1.07549e-05
228 *427:536 *487:14 1.68301e-05
229 *427:536 *866:74 0.000567166
230 *427:536 *866:84 0.00046603
231 *427:536 *876:261 0
232 *427:536 *891:39 7.06708e-05
233 *427:536 *891:269 9.45696e-06
234 *926:A *427:8 6.27782e-05
235 *936:D *427:10 0.000882903
236 *938:D *427:10 0
237 *940:A *427:10 0
238 *948:B *427:10 6.21422e-05
239 *976:A *1297:C 4.66492e-05
240 *979:A *427:41 7.5108e-05
241 *980:A *427:431 0
242 *987:A *427:88 7.09909e-05
243 *990:A *427:58 0.000244148
244 *990:A *427:64 3.04234e-05
245 *993:A *427:472 7.40248e-05
246 *1002:A *1323:C 2.23105e-05
247 *1170:A *427:88 2.68928e-05
248 *1231:A *1231:C 0.000300212
249 *1233:A *427:366 0.000128285
250 *1233:A *427:373 0.000337516
251 *1234:A *427:88 6.92705e-05
252 *1237:A *427:431 2.57847e-05
253 *1249:A *427:130 0.000103907
254 *1249:A *427:139 0.000248172
255 *1252:A *1252:C 2.23105e-05
256 *1293:A *1229:C 2.91001e-05
257 *1297:A *1297:C 6.28425e-05
258 *1300:A *427:41 0.00019609
259 *1300:B *427:31 1.49644e-05
260 *1300:B *427:41 1.08342e-05
261 *1301:A *427:442 0.00014018
262 *1301:B *427:442 0.000107643
263 *1301:B *427:456 0.000652413
264 *1306:A *427:482 0.000171288
265 *1307:A *427:530 0
266 *1308:A *1308:C 2.23105e-05
267 *1313:A *1313:C 7.04127e-05
268 *1314:B *427:472 0.000159038
269 *1316:A *1316:C 0.000100785
270 *1319:B *427:421 3.82228e-05
271 *1327:A *427:301 0.000457582
272 *1327:B *427:301 0.000139188
273 *1335:C *427:25 0.000248556
274 *1346:A *427:456 0
275 *1351:A *1255:C 0.000122895
276 *1351:B *1255:C 3.28798e-05
277 *1405:D *427:512 8.95297e-05
278 *1410:D *427:456 6.65668e-05
279 *1474:D *427:472 0.000210121
280 *1479:D *427:431 0
281 *1511:DE *427:431 0
282 *1517:D *1229:C 9.4545e-05
283 *1519:D *1231:C 3.37984e-05
284 *1525:D *427:442 2.18041e-06
285 *1527:D *1239:C 7.58289e-06
286 *1532:D *1244:C 0.000176092
287 *1533:DE *1309:C 0.00016763
288 *1533:DE *427:512 0.000380035
289 *1537:D *427:139 4.25818e-05
290 *1537:D *427:155 0.000246874
291 *1538:D *427:456 4.25622e-06
292 *1540:D *1252:C 0
293 *1543:D *1255:C 0
294 *1562:D *427:482 0.000407803
295 *1562:DE *427:472 0.000756084
296 *1562:DE *427:482 0.000237244
297 *1583:D *427:312 6.27718e-05
298 *1591:D *427:14 6.64392e-05
299 *1597:D *427:512 2.53624e-06
300 *1597:D *427:524 1.93378e-05
301 *1597:DE *427:512 0.000111197
302 *1602:D *427:456 6.63257e-06
303 *1602:D *427:458 2.09892e-05
304 *1604:D *1252:C 0.000146645
305 *1606:D *427:343 0
306 *1606:D *427:366 1.5714e-05
307 *1617:D *1297:C 1.59362e-06
308 *1617:D *427:404 0.000117703
309 *1618:D *427:82 0.00037088
310 *1626:D *427:482 6.02075e-05
311 *1633:D *427:155 7.19347e-05
312 *1634:D *427:456 1.92172e-05
313 *1638:D *427:343 2.95613e-05
314 *1638:D *427:366 0.000294939
315 *1685:B *427:245 0.000392278
316 *1687:B1 *427:245 0.000110458
317 *1699:B *427:10 0.000111681
318 *2283:A *427:10 0
319 *1:68 *1229:C 3.92275e-05
320 *5:28 *1242:C 8.48815e-05
321 *5:30 *1242:C 5.31128e-05
322 *5:42 *1242:C 4.31703e-05
323 *6:53 *427:536 6.08467e-05
324 *6:59 *427:536 6.27332e-05
325 *7:13 *1244:C 3.31882e-05
326 *7:26 *1244:C 5.88205e-05
327 *7:28 *1244:C 3.39187e-05
328 *7:43 *1244:C 0.000140135
329 *7:43 *427:88 6.08697e-06
330 *8:78 *427:524 0
331 *10:15 *427:64 3.5534e-06
332 *10:44 *1247:C 0.000153892
333 *14:15 *427:458 0.000124413
334 *14:15 *427:472 9.73599e-06
335 *14:19 *427:472 8.24822e-05
336 *14:32 *427:472 2.20471e-05
337 *16:60 *1252:C 0
338 *18:15 *427:343 0.000348217
339 *18:17 *427:343 2.86829e-05
340 *19:17 *427:431 0.000302469
341 *19:43 *427:431 7.88662e-05
342 *19:58 *1319:C 3.53929e-05
343 *19:58 *427:431 0.000726193
344 *19:64 *427:404 3.96696e-05
345 *19:83 *1255:C 6.27782e-05
346 *21:21 *1321:C 6.89596e-05
347 *21:27 *427:316 0
348 *24:25 *427:68 5.00906e-05
349 *24:31 *1259:C 6.89596e-05
350 *27:28 *1297:C 0.000118166
351 *27:32 *1297:C 0.000337746
352 *27:36 *1297:C 2.86829e-05
353 *28:76 *1298:C 3.79145e-06
354 *31:20 *427:442 4.37969e-05
355 *31:24 *427:431 7.93303e-06
356 *31:24 *427:442 7.61995e-05
357 *31:43 *427:431 4.99296e-05
358 *69:442 *427:265 8.03393e-06
359 *69:503 *1319:C 2.23105e-05
360 *69:503 *427:404 1.4106e-05
361 *76:53 *427:245 0.000299994
362 *85:103 *427:10 7.55529e-05
363 *85:105 *427:10 7.90257e-05
364 *125:23 *958:B 0.000126635
365 *125:97 *427:442 0.000673661
366 *125:97 *427:456 0.00054156
367 *126:10 *2279:A 2.77625e-06
368 *126:10 *427:245 6.27718e-05
369 *126:16 *958:B 2.29454e-05
370 *126:54 *427:366 0.000349649
371 *126:139 *427:497 0
372 *127:6 *427:245 0.00016195
373 *127:157 *427:245 0.000154145
374 *128:56 *427:130 0.000360872
375 *285:26 *427:512 3.15663e-05
376 *402:14 *427:130 0.000190683
377 *417:86 *1303:C 3.81734e-06
378 *417:86 *427:14 0.000161742
379 *417:92 *427:25 6.93171e-05
380 *417:109 *427:25 0.000588889
381 *417:109 *427:31 0.000333313
382 *417:121 *427:41 2.47378e-05
383 *417:168 *427:64 0.00142131
384 *417:191 *427:74 0.000380157
385 *417:191 *427:76 5.52855e-05
386 *417:193 *427:76 4.2748e-05
387 *417:193 *427:82 0.000108286
388 *417:195 *427:82 0.000225547
389 *417:195 *427:88 0
390 *417:465 *427:431 2.96137e-05
391 *417:469 *1255:C 8.62582e-05
392 *417:487 *1297:C 0.000256408
393 *417:495 *1318:C 2.1228e-06
394 *417:495 *427:333 2.05814e-05
395 *417:526 *427:316 0.000173401
396 *417:539 *427:301 4.47125e-06
397 *417:539 *427:312 0.000485238
398 *417:539 *427:316 9.14154e-05
399 *419:12 *427:10 0
400 *419:16 *427:10 0.000178293
401 *419:28 *427:25 0.000210475
402 *419:28 *427:31 0.000730982
403 *419:28 *427:41 0.000172696
404 *419:61 *427:41 1.19513e-05
405 *419:71 *427:58 0
406 *419:81 *427:58 3.77804e-05
407 *419:95 *427:74 0
408 *419:95 *427:76 0
409 *419:95 *427:82 0
410 *419:97 *427:82 0
411 *419:99 *427:82 0
412 *423:94 *427:130 0.00016195
413 *423:104 *427:130 0.000161956
*RES
1 *955:X *427:8 14.4725 
2 *427:8 *427:10 48.3402 
3 *427:10 *427:14 15.7609 
4 *427:14 *1303:C 9.77964 
5 *427:14 *427:25 17.9591 
6 *427:25 *427:31 18.4895 
7 *427:31 *427:41 24.2409 
8 *427:41 *1236:C 10.8888 
9 *427:41 *427:52 19.6201 
10 *427:52 *427:58 12.4029 
11 *427:58 *427:64 31.6088 
12 *427:64 *427:68 2.98005 
13 *427:68 *427:74 14.7781 
14 *427:74 *427:76 4.73876 
15 *427:76 *427:82 19.6952 
16 *427:82 *427:88 19.8881 
17 *427:88 *1244:C 29.1373 
18 *427:88 *1308:C 14.0144 
19 *427:82 *1234:C 9.24915 
20 *427:76 *1298:C 14.0144 
21 *427:74 *427:130 38.789 
22 *427:130 *1249:C 9.24915 
23 *427:130 *427:139 7.34536 
24 *427:139 *427:155 40.6431 
25 *427:155 *1252:C 20.4874 
26 *427:155 *1316:C 14.8704 
27 *427:139 *1313:C 17.5102 
28 *427:68 *1259:C 14.569 
29 *427:64 *1323:C 14.0144 
30 *427:58 *1311:C 9.24915 
31 *427:52 *1247:C 15.425 
32 *427:31 *1300:C 9.24915 
33 *427:25 *1239:C 14.2796 
34 *955:X *427:245 41.3197 
35 *427:245 *2279:A 19.9795 
36 *2279:A *427:265 31.1311 
37 *427:265 *958:B 16.7151 
38 *427:265 *427:278 3.90826 
39 *427:278 *1231:C 17.0527 
40 *427:278 *427:301 15.2761 
41 *427:301 *1295:C 9.24915 
42 *427:301 *427:312 27.2435 
43 *427:312 *427:316 10.8998 
44 *427:316 *1257:C 10.925 
45 *427:316 *427:333 29.6108 
46 *427:333 *427:343 16.8733 
47 *427:343 *1254:C 9.24915 
48 *427:343 *427:366 29.8101 
49 *427:366 *1233:C 9.24915 
50 *427:366 *427:373 4.44889 
51 *427:373 *1297:C 28.4038 
52 *427:373 *427:404 30.6878 
53 *427:404 *1255:C 34.883 
54 *427:404 *427:421 7.44181 
55 *427:421 *427:431 45.0131 
56 *427:431 *1237:C 9.24915 
57 *427:431 *427:442 20.1133 
58 *427:442 *427:456 32.4389 
59 *427:456 *427:458 5.16022 
60 *427:458 *427:472 43.9614 
61 *427:472 *427:482 23.1525 
62 *427:482 *1306:C 9.24915 
63 *427:482 *427:497 17.326 
64 *427:497 *1245:C 9.24915 
65 *427:497 *427:512 24.3419 
66 *427:512 *427:524 15.9994 
67 *427:524 *427:530 13.1905 
68 *427:530 *427:536 28.0566 
69 *427:536 *1229:C 21.147 
70 *427:536 *1293:C 14.569 
71 *427:530 *1243:C 9.24915 
72 *427:524 *1307:C 15.3888 
73 *427:512 *1309:C 17.0527 
74 *427:472 *1242:C 21.9717 
75 *427:458 *1314:C 9.24915 
76 *427:456 *1250:C 9.24915 
77 *427:442 *1301:C 14.5991 
78 *427:421 *1319:C 15.0159 
79 *427:333 *1318:C 10.069 
80 *427:312 *1321:C 14.569 
*END

*D_NET *428 0.00381028
*CONN
*I *957:B I *D sky130_fd_sc_hd__nand2_4
*I *956:Y O *D sky130_fd_sc_hd__nand2_1
*CAP
1 *957:B 0
2 *956:Y 0.0012826
3 *428:16 0.0012826
4 *428:16 *946:B 0
5 *428:16 *886:156 0
6 *920:D *428:16 0.000118485
7 *957:A *428:16 6.50586e-05
8 *1386:DE *428:16 6.62343e-05
9 *83:30 *428:16 9.85794e-05
10 *83:34 *428:16 0.000162225
11 *125:8 *428:16 5.73228e-05
12 *422:16 *428:16 0.000677167
*RES
1 *956:Y *428:16 47.5904 
2 *428:16 *957:B 9.24915 
*END

*D_NET *429 0.00327771
*CONN
*I *959:B I *D sky130_fd_sc_hd__nand2_4
*I *958:Y O *D sky130_fd_sc_hd__nand2_1
*CAP
1 *959:B 0
2 *958:Y 0.000827082
3 *429:16 0.000827082
4 *429:16 *823:12 0
5 *429:16 *880:12 0.000172703
6 *2279:A *429:16 0.00037705
7 *126:10 *429:16 0.000265953
8 *126:16 *429:16 0.00016553
9 *427:245 *429:16 3.5063e-05
10 *427:265 *429:16 0.000607244
*RES
1 *958:Y *429:16 44.7004 
2 *429:16 *959:B 9.24915 
*END

*D_NET *430 0.0526602
*CONN
*I *1123:A2 I *D sky130_fd_sc_hd__o21ai_0
*I *1083:A2 I *D sky130_fd_sc_hd__o21ai_0
*I *1009:A1 I *D sky130_fd_sc_hd__a21oi_1
*I *1008:A2 I *D sky130_fd_sc_hd__o21ai_0
*I *1038:A2 I *D sky130_fd_sc_hd__o21ai_0
*I *1124:A1 I *D sky130_fd_sc_hd__a21oi_1
*I *1039:A1 I *D sky130_fd_sc_hd__a21oi_1
*I *1084:A1 I *D sky130_fd_sc_hd__a21oi_1
*I *1093:A2 I *D sky130_fd_sc_hd__o21ai_0
*I *1033:A2 I *D sky130_fd_sc_hd__o21ai_0
*I *1144:A1 I *D sky130_fd_sc_hd__a21oi_1
*I *1094:A1 I *D sky130_fd_sc_hd__a21oi_1
*I *1143:A2 I *D sky130_fd_sc_hd__o21ai_0
*I *1069:A1 I *D sky130_fd_sc_hd__a21oi_1
*I *1068:A2 I *D sky130_fd_sc_hd__o21ai_0
*I *1014:A1 I *D sky130_fd_sc_hd__a21oi_1
*I *1089:A1 I *D sky130_fd_sc_hd__a21oi_1
*I *1158:A2 I *D sky130_fd_sc_hd__o21ai_0
*I *1159:A1 I *D sky130_fd_sc_hd__a21oi_1
*I *1049:A1 I *D sky130_fd_sc_hd__a21oi_1
*I *1054:A1 I *D sky130_fd_sc_hd__a21oi_1
*I *1109:A1 I *D sky130_fd_sc_hd__a21oi_1
*I *1079:A1 I *D sky130_fd_sc_hd__a21oi_1
*I *1034:A1 I *D sky130_fd_sc_hd__a21oi_1
*I *1064:A1 I *D sky130_fd_sc_hd__a21oi_1
*I *1113:A2 I *D sky130_fd_sc_hd__o21ai_0
*I *1013:A2 I *D sky130_fd_sc_hd__o21ai_0
*I *1088:A2 I *D sky130_fd_sc_hd__o21ai_0
*I *1053:A2 I *D sky130_fd_sc_hd__o21ai_0
*I *1048:A2 I *D sky130_fd_sc_hd__o21ai_0
*I *1078:A2 I *D sky130_fd_sc_hd__o21ai_0
*I *1108:A2 I *D sky130_fd_sc_hd__o21ai_0
*I *1063:A2 I *D sky130_fd_sc_hd__o21ai_0
*I *1114:A1 I *D sky130_fd_sc_hd__a21oi_1
*I *1098:A2 I *D sky130_fd_sc_hd__o21ai_0
*I *1139:A1 I *D sky130_fd_sc_hd__a21oi_1
*I *1029:A1 I *D sky130_fd_sc_hd__a21oi_1
*I *1134:A1 I *D sky130_fd_sc_hd__a21oi_1
*I *1028:A2 I *D sky130_fd_sc_hd__o21ai_0
*I *1154:A1 I *D sky130_fd_sc_hd__a21oi_1
*I *1138:A2 I *D sky130_fd_sc_hd__o21ai_0
*I *1149:A1 I *D sky130_fd_sc_hd__a21oi_1
*I *1133:A2 I *D sky130_fd_sc_hd__o21ai_0
*I *1023:A2 I *D sky130_fd_sc_hd__o21ai_0
*I *1153:A2 I *D sky130_fd_sc_hd__o21ai_0
*I *1148:A2 I *D sky130_fd_sc_hd__o21ai_0
*I *1019:A1 I *D sky130_fd_sc_hd__a21oi_1
*I *1018:A2 I *D sky130_fd_sc_hd__o21ai_0
*I *1024:A1 I *D sky130_fd_sc_hd__a21oi_1
*I *1059:A1 I *D sky130_fd_sc_hd__a21oi_1
*I *1163:A2 I *D sky130_fd_sc_hd__o21ai_0
*I *1043:A2 I *D sky130_fd_sc_hd__o21ai_0
*I *1058:A2 I *D sky130_fd_sc_hd__o21ai_0
*I *1164:A1 I *D sky130_fd_sc_hd__a21oi_1
*I *1104:A1 I *D sky130_fd_sc_hd__a21oi_1
*I *1044:A1 I *D sky130_fd_sc_hd__a21oi_1
*I *1103:A2 I *D sky130_fd_sc_hd__o21ai_0
*I *1129:A1 I *D sky130_fd_sc_hd__a21oi_1
*I *1128:A2 I *D sky130_fd_sc_hd__o21ai_0
*I *1118:A2 I *D sky130_fd_sc_hd__o21ai_0
*I *1119:A1 I *D sky130_fd_sc_hd__a21oi_1
*I *1074:A1 I *D sky130_fd_sc_hd__a21oi_1
*I *1099:A1 I *D sky130_fd_sc_hd__a21oi_1
*I *1073:A2 I *D sky130_fd_sc_hd__o21ai_0
*I *1004:X O *D sky130_fd_sc_hd__lpflow_isobufsrc_8
*CAP
1 *1123:A2 0
2 *1083:A2 0.000297591
3 *1009:A1 0
4 *1008:A2 0
5 *1038:A2 0.000130943
6 *1124:A1 3.968e-05
7 *1039:A1 5.75041e-05
8 *1084:A1 0
9 *1093:A2 7.6834e-05
10 *1033:A2 0
11 *1144:A1 0
12 *1094:A1 0.000461088
13 *1143:A2 2.93311e-05
14 *1069:A1 0
15 *1068:A2 0.000131739
16 *1014:A1 4.17154e-05
17 *1089:A1 4.17154e-05
18 *1158:A2 4.13748e-05
19 *1159:A1 3.29888e-05
20 *1049:A1 0.000392791
21 *1054:A1 0
22 *1109:A1 0
23 *1079:A1 0
24 *1034:A1 0.000430787
25 *1064:A1 0
26 *1113:A2 0.000433497
27 *1013:A2 0
28 *1088:A2 7.01134e-05
29 *1053:A2 0.000231585
30 *1048:A2 0.000129294
31 *1078:A2 9.51421e-05
32 *1108:A2 0
33 *1063:A2 3.5247e-05
34 *1114:A1 0
35 *1098:A2 9.46633e-05
36 *1139:A1 0
37 *1029:A1 0.000164297
38 *1134:A1 0
39 *1028:A2 0.000188728
40 *1154:A1 4.58612e-05
41 *1138:A2 0
42 *1149:A1 0.00016744
43 *1133:A2 0.000322126
44 *1023:A2 5.63604e-05
45 *1153:A2 0.000113372
46 *1148:A2 2.31818e-05
47 *1019:A1 0
48 *1018:A2 0
49 *1024:A1 2.3147e-05
50 *1059:A1 0.000204495
51 *1163:A2 0
52 *1043:A2 0
53 *1058:A2 0.000228992
54 *1164:A1 5.79694e-05
55 *1104:A1 4.17153e-05
56 *1044:A1 3.71419e-05
57 *1103:A2 0
58 *1129:A1 7.93903e-05
59 *1128:A2 0
60 *1118:A2 0
61 *1119:A1 0
62 *1074:A1 0.000138152
63 *1099:A1 0.000420892
64 *1073:A2 0
65 *1004:X 0.000196638
66 *430:728 0.000509654
67 *430:710 0.000130943
68 *430:690 0.000348921
69 *430:683 0.000704948
70 *430:677 0.00061076
71 *430:671 0.000407152
72 *430:667 0.000151937
73 *430:656 0.000295464
74 *430:628 0.000534052
75 *430:617 0.00032568
76 *430:611 0.000266409
77 *430:592 0.000131739
78 *430:492 0.000676333
79 *430:473 0.000690273
80 *430:458 0.00072582
81 *430:438 0.000224436
82 *430:436 0.000432156
83 *430:427 0.00054872
84 *430:412 0.000594014
85 *430:410 0.00052799
86 *430:408 0.000607535
87 *430:406 0.000784546
88 *430:400 0.00087762
89 *430:398 0.000270622
90 *430:396 0.000649309
91 *430:394 0.000315586
92 *430:392 0.000194701
93 *430:390 0.000322885
94 *430:388 0.000691457
95 *430:377 0.000806665
96 *430:371 0.000476463
97 *430:358 0.000326277
98 *430:323 0.000188728
99 *430:321 0.000559862
100 *430:311 0.000788567
101 *430:296 0.000585604
102 *430:287 0.000434046
103 *430:270 0.000565194
104 *430:240 0.000378486
105 *430:229 0.000353246
106 *430:225 0.000377429
107 *430:214 0.000131779
108 *430:175 0.000392153
109 *430:147 0.000250766
110 *430:145 0.000413179
111 *430:65 0.000533321
112 *430:61 0.000243431
113 *430:52 0.000621611
114 *430:46 0.000934712
115 *430:40 0.000533815
116 *430:38 0.000285305
117 *430:32 0.000471215
118 *430:28 0.000480682
119 *430:24 0.000193781
120 *430:22 0.000253542
121 *430:20 0.000617507
122 *430:18 0.000431715
123 *430:12 0.000192412
124 *430:10 0.000202055
125 *430:8 0.00043053
126 *1023:A2 *901:102 0
127 *1029:A1 *533:18 4.62112e-05
128 *1034:A1 *477:18 0
129 *1038:A2 *458:12 0.000377259
130 *1039:A1 *458:12 2.99929e-05
131 *1053:A2 *1049:B1 5.04829e-06
132 *1058:A2 *1059:B1 1.31657e-05
133 *1068:A2 *1069:B1 0.000271044
134 *1074:A1 *1074:B1 3.86121e-05
135 *1078:A2 *490:18 1.00937e-05
136 *1083:A2 *1009:A2 0.000138787
137 *1083:A2 *1094:A2 0
138 *1083:A2 *494:14 7.02172e-06
139 *1083:A2 *857:414 1.68608e-05
140 *1093:A2 *1094:B1 6.08467e-05
141 *1094:A1 *857:414 0
142 *1098:A2 *1099:B1 1.19721e-05
143 *1099:A1 *1099:A2 3.07159e-05
144 *1099:A1 *521:22 6.48293e-05
145 *1099:A1 *856:30 0
146 *1113:A2 *1014:B1 0.000151726
147 *1113:A2 *900:12 6.88594e-05
148 *1113:A2 *900:14 6.87752e-05
149 *1113:A2 *900:16 8.21602e-05
150 *1113:A2 *900:18 2.5386e-05
151 *1124:A1 *1084:A2 1.43983e-05
152 *1129:A1 *1129:B1 0.00011818
153 *1133:A2 *1134:B1 0.000213725
154 *1133:A2 *1154:B1 7.14746e-05
155 *1133:A2 *1449:CLK 0.0001222
156 *1149:A1 *1149:B1 0.000277502
157 *1153:A2 *1154:B1 0.000377259
158 *1158:A2 *1089:B1 0.000114271
159 *1159:A1 *1547:CLK 2.16355e-05
160 *1164:A1 *856:28 4.28856e-07
161 *430:10 *1019:A2 5.77352e-05
162 *430:12 *1019:A2 2.27135e-05
163 *430:12 *1019:B1 2.20748e-05
164 *430:18 *445:18 3.00174e-06
165 *430:20 *1527:DE 0.000232882
166 *430:20 *445:18 4.90487e-05
167 *430:22 *1044:B1 9.53481e-05
168 *430:22 *1527:DE 0.000314644
169 *430:22 *856:30 0.000129609
170 *430:24 *1044:B1 5.22071e-05
171 *430:24 *856:30 0.000123582
172 *430:28 *1044:B1 9.28672e-05
173 *430:28 *856:30 0.000253826
174 *430:32 *1044:B1 6.92705e-05
175 *430:32 *1104:B1 1.9622e-05
176 *430:40 *1129:B1 0.000167076
177 *430:46 *1434:CLK 3.7028e-05
178 *430:46 *901:28 0.000104397
179 *430:52 *1434:CLK 2.14842e-06
180 *430:52 *1443:CLK 9.34869e-05
181 *430:61 *1074:B1 0.000134521
182 *430:61 *1119:B1 6.64392e-05
183 *430:65 *1074:B1 3.16037e-05
184 *430:145 *1044:B1 0.000207629
185 *430:175 *1164:B1 0.000148144
186 *430:214 *1149:B1 3.31733e-05
187 *430:225 *1149:B1 5.05252e-05
188 *430:270 *1149:B1 0.000166349
189 *430:287 *545:16 0
190 *430:311 *1029:A2 0
191 *430:311 *1139:A2 1.91246e-05
192 *430:311 *1139:B1 9.47944e-05
193 *430:321 *1134:B1 5.39463e-05
194 *430:321 *1139:B1 0.000117376
195 *430:321 *533:18 8.62625e-06
196 *430:358 *1099:B1 0.000218562
197 *430:371 *1069:A2 8.62625e-06
198 *430:377 *1069:A2 0.000123582
199 *430:377 *1114:B1 5.59526e-05
200 *430:388 *1114:A2 1.82696e-05
201 *430:388 *856:30 0.000404851
202 *430:388 *856:32 0.000237922
203 *430:390 *856:32 0.000389313
204 *430:392 *1089:B1 0.000122858
205 *430:392 *856:32 0.000169684
206 *430:394 *1159:B1 0.000137389
207 *430:394 *856:32 0.000227334
208 *430:396 *1159:B1 1.07248e-05
209 *430:396 *856:32 0.000137404
210 *430:396 *856:42 0.00017419
211 *430:400 *469:18 2.37478e-05
212 *430:400 *856:42 8.04032e-05
213 *430:406 *1109:A2 2.37478e-05
214 *430:406 *856:42 0.000114861
215 *430:408 *490:18 6.08467e-05
216 *430:412 *1064:B1 0.00027329
217 *430:427 *899:41 0.000101533
218 *430:473 *1429:CLK 6.04064e-05
219 *430:473 *900:24 4.78524e-05
220 *430:492 *1014:B1 5.61403e-05
221 *430:492 *900:20 3.60501e-05
222 *430:492 *900:22 5.47345e-05
223 *430:492 *900:24 9.84581e-06
224 *430:611 *1034:B1 0.000277488
225 *430:617 *899:43 0
226 *430:628 *1144:B1 0.00027329
227 *430:656 *1094:B1 0.000220183
228 *430:667 *1094:A2 0
229 *430:677 *1009:B1 6.50727e-05
230 *430:677 *899:47 0
231 *430:683 *494:14 0.000949422
232 *430:683 *899:47 0
233 *430:683 *899:49 0
234 *430:690 *1084:A2 4.6284e-05
235 *430:690 *1124:B1 4.81015e-05
236 *430:690 *494:14 7.34948e-06
237 *430:728 *1009:B1 0.000199527
238 *430:728 *494:14 7.98425e-06
239 data_out[14] *430:436 0
240 data_out[16] *1113:A2 0
241 data_out[16] *430:492 3.13693e-05
242 data_out[28] *1023:A2 6.92705e-05
243 data_out[2] *430:18 6.85852e-05
244 *923:A *1029:A1 0
245 *931:D *430:311 0
246 *1008:A1 *1038:A2 2.65667e-05
247 *1008:A1 *430:677 1.41689e-05
248 *1008:A1 *430:683 3.90689e-06
249 *1033:A1 *430:617 1.07248e-05
250 *1033:B1 *430:611 2.65831e-05
251 *1038:B1 *1038:A2 7.73228e-05
252 *1038:B1 *430:677 7.99477e-05
253 *1043:B1 *1058:A2 0.000122223
254 *1043:B1 *430:145 6.50727e-05
255 *1043:B1 *430:147 6.08467e-05
256 *1048:A1 *430:436 0
257 *1048:A1 *430:458 0
258 *1048:A1 *430:473 0
259 *1053:A1 *430:473 0
260 *1068:A1 *1068:A2 6.50586e-05
261 *1073:B1 *430:61 3.13894e-05
262 *1073:B1 *430:65 0
263 *1078:A1 *430:436 0
264 *1078:B1 *1048:A2 6.49003e-05
265 *1078:B1 *1078:A2 2.65667e-05
266 *1083:A1 *1083:A2 9.12416e-06
267 *1083:B1 *430:728 1.00846e-05
268 *1088:A1 *430:492 7.41458e-05
269 *1098:A1 *1098:A2 3.65423e-05
270 *1098:A1 *1099:A1 0
271 *1098:A1 *430:358 0
272 *1103:B1 *430:32 2.85274e-05
273 *1113:A1 *1113:A2 7.00991e-05
274 *1123:A1 *430:667 3.31733e-05
275 *1123:A1 *430:671 0.000127179
276 *1138:A1 *1154:A1 5.48642e-05
277 *1138:A1 *430:296 9.16621e-05
278 *1138:A1 *430:311 0
279 *1158:B1 *1158:A2 0.000122378
280 *1163:A1 *430:175 1.1792e-05
281 *1423:D *430:10 3.31736e-05
282 *1424:D *430:18 3.1762e-05
283 *1426:D *1034:A1 9.60216e-05
284 *1426:D *430:617 0
285 *1427:D *430:683 0
286 *1428:D *430:32 2.01874e-05
287 *1429:D *1053:A2 7.34948e-06
288 *1430:D *430:396 0.000168336
289 *1430:D *430:398 2.47663e-05
290 *1430:D *430:400 5.10931e-05
291 *1432:D *1034:A1 0
292 *1433:D *430:371 2.39535e-05
293 *1433:D *430:377 4.70005e-05
294 *1434:D *1099:A1 9.34396e-06
295 *1435:D *1034:A1 0.000104691
296 *1436:D *430:683 0.000655205
297 *1438:D *1094:A1 4.27003e-05
298 *1438:D *430:667 0
299 *1439:D *430:358 4.87439e-05
300 *1439:D *430:371 2.1203e-06
301 *1443:D *430:61 4.87439e-05
302 *1446:D *1028:A2 0.000156384
303 *1448:D *1094:A1 5.52321e-05
304 *1449:D *1149:A1 7.92757e-06
305 *1452:D *430:22 0.000153225
306 *1535:D *430:388 0.000338711
307 *1665:A *430:8 0.000324166
308 *24:17 *1049:A1 0.000618609
309 *24:25 *430:398 0
310 *24:25 *430:400 0
311 *46:10 *1113:A2 5.74984e-05
312 *53:12 *430:214 5.22654e-06
313 *53:12 *430:225 1.69932e-05
314 *53:12 *430:270 3.60268e-05
315 *55:10 *430:10 0.000184414
316 *55:10 *430:12 0.000142485
317 *55:10 *430:18 1.03594e-05
318 *59:8 *430:321 0.00011818
319 *72:13 *430:8 1.41976e-05
320 *81:13 *1029:A1 0
321 *81:19 *1029:A1 0
322 *81:19 *430:321 0
323 *81:30 *1023:A2 6.50586e-05
324 *81:30 *1153:A2 0.000379505
325 *81:30 *430:229 5.08751e-05
326 *81:37 *1148:A2 6.50586e-05
327 *81:37 *430:229 0.000629776
328 *81:48 *430:10 7.64963e-05
329 *81:48 *430:12 2.16488e-05
330 *81:48 *430:214 2.32311e-05
331 *81:66 *1024:A1 6.27782e-05
332 *81:66 *430:12 3.44412e-06
333 *81:66 *430:18 3.20593e-05
334 *81:66 *430:175 2.1203e-06
335 *81:74 *1059:A1 6.47426e-05
336 *81:74 *430:175 6.92705e-05
337 *81:86 *430:38 4.90829e-05
338 *81:94 *430:40 4.82966e-05
339 *81:94 *430:46 0.00013978
340 *81:94 *430:52 0
341 *81:100 *430:52 0.000436825
342 *81:100 *430:61 1.92172e-05
343 *81:110 *1068:A2 0.000222149
344 *81:110 *430:371 3.0918e-05
345 *81:123 *1068:A2 1.41853e-05
346 *81:150 *430:436 0
347 *81:152 *1048:A2 5.07314e-05
348 *81:163 *430:436 0.000107282
349 *81:165 *430:427 5.32652e-05
350 *81:165 *430:436 3.67528e-06
351 *81:171 *430:611 2.16355e-05
352 *81:171 *430:617 0
353 *81:175 *430:617 0.000141016
354 *81:177 *1094:A1 0
355 *81:177 *430:617 8.62625e-06
356 *81:177 *430:667 3.31733e-05
357 *81:179 *430:667 0.000130777
358 *81:181 *430:667 6.79599e-05
359 *81:181 *430:671 0.000127179
360 *81:181 *430:677 7.77309e-06
361 *81:204 *430:677 1.51325e-05
362 *81:204 *430:683 5.22654e-06
363 *417:191 *430:400 0
364 *417:191 *430:406 0
365 *427:64 *430:396 0
366 *427:74 *430:400 0
*RES
1 *1004:X *430:8 17.2456 
2 *430:8 *430:10 5.56926 
3 *430:10 *430:12 2.6625 
4 *430:12 *430:18 4.39679 
5 *430:18 *430:20 6.81502 
6 *430:20 *430:22 7.64553 
7 *430:22 *430:24 2.24725 
8 *430:24 *430:28 8.82351 
9 *430:28 *430:32 7.95736 
10 *430:32 *430:38 12.0778 
11 *430:38 *430:40 2.94181 
12 *430:40 *430:46 17.0299 
13 *430:46 *430:52 18.5543 
14 *430:52 *1073:A2 9.24915 
15 *430:52 *430:61 5.73894 
16 *430:61 *430:65 2.41132 
17 *430:65 *1099:A1 25.0964 
18 *430:65 *1074:A1 12.7697 
19 *430:61 *1119:A1 9.24915 
20 *430:46 *1118:A2 13.7491 
21 *430:40 *1128:A2 9.24915 
22 *430:38 *1129:A1 11.6364 
23 *430:32 *1103:A2 9.24915 
24 *430:28 *1044:A1 9.97254 
25 *430:24 *1104:A1 14.4725 
26 *430:22 *1164:A1 14.4725 
27 *430:20 *430:145 11.324 
28 *430:145 *430:147 0.723396 
29 *430:147 *1058:A2 15.0122 
30 *430:147 *1043:A2 9.24915 
31 *430:145 *430:175 14.1202 
32 *430:175 *1163:A2 9.24915 
33 *430:175 *1059:A1 14.2888 
34 *430:18 *1024:A1 14.4725 
35 *430:12 *1018:A2 13.7491 
36 *430:10 *1019:A1 13.7491 
37 *430:8 *430:214 2.24725 
38 *430:214 *1148:A2 14.4725 
39 *430:214 *430:225 1.00149 
40 *430:225 *430:229 11.8786 
41 *430:229 *1153:A2 14.9881 
42 *430:229 *430:240 4.5 
43 *430:240 *1023:A2 15.474 
44 *430:240 *1133:A2 22.0676 
45 *430:225 *430:270 3.493 
46 *430:270 *1149:A1 18.3548 
47 *430:270 *430:287 11.3883 
48 *430:287 *1138:A2 9.24915 
49 *430:287 *430:296 3.93045 
50 *430:296 *1154:A1 10.5271 
51 *430:296 *430:311 17.5083 
52 *430:311 *430:321 13.0702 
53 *430:321 *430:323 4.5 
54 *430:323 *1028:A2 14.4094 
55 *430:323 *1134:A1 9.24915 
56 *430:321 *1029:A1 17.6574 
57 *430:311 *1139:A1 9.24915 
58 *1099:A1 *430:358 13.7342 
59 *430:358 *1098:A2 11.6605 
60 *430:358 *430:371 7.57775 
61 *430:371 *430:377 11.3529 
62 *430:377 *1114:A1 9.24915 
63 *430:377 *430:388 18.27 
64 *430:388 *430:390 6.81502 
65 *430:390 *430:392 3.07775 
66 *430:392 *430:394 3.90826 
67 *430:394 *430:396 7.64553 
68 *430:396 *430:398 1.41674 
69 *430:398 *430:400 6.81502 
70 *430:400 *430:406 17.5845 
71 *430:406 *430:408 1.8326 
72 *430:408 *430:410 2.94181 
73 *430:410 *430:412 5.16022 
74 *430:412 *1063:A2 10.2378 
75 *430:412 *430:427 10.973 
76 *430:427 *1108:A2 13.7491 
77 *430:427 *430:436 7.64553 
78 *430:436 *430:438 4.5 
79 *430:438 *1078:A2 11.6605 
80 *430:438 *1048:A2 12.7697 
81 *430:436 *430:458 2.6625 
82 *430:458 *1053:A2 19.1023 
83 *430:458 *430:473 9.92941 
84 *430:473 *1088:A2 15.584 
85 *430:473 *430:492 8.34168 
86 *430:492 *1013:A2 13.7491 
87 *430:492 *1113:A2 26.7929 
88 *430:410 *1064:A1 9.24915 
89 *430:408 *1034:A1 25.7876 
90 *430:406 *1079:A1 9.24915 
91 *430:400 *1109:A1 13.7491 
92 *430:398 *1054:A1 13.7491 
93 *430:396 *1049:A1 20.5732 
94 *430:394 *1159:A1 14.4725 
95 *430:392 *1158:A2 15.5817 
96 *430:390 *1089:A1 14.4725 
97 *430:388 *1014:A1 14.4725 
98 *430:371 *430:592 4.5 
99 *430:592 *1068:A2 14.4094 
100 *430:592 *1069:A1 9.24915 
101 *1034:A1 *430:611 14.4094 
102 *430:611 *430:617 12.493 
103 *430:617 *1143:A2 9.97254 
104 *430:617 *430:628 5.18434 
105 *430:628 *1094:A1 27.1404 
106 *430:628 *1144:A1 9.24915 
107 *430:611 *1033:A2 9.24915 
108 *1094:A1 *430:656 12.7456 
109 *430:656 *1093:A2 11.0817 
110 *430:656 *430:667 8.40826 
111 *430:667 *430:671 6.74725 
112 *430:671 *430:677 7.74935 
113 *430:677 *430:683 22.835 
114 *430:683 *1084:A1 9.24915 
115 *430:683 *430:690 4.05102 
116 *430:690 *1039:A1 19.6659 
117 *430:690 *1124:A1 9.97254 
118 *430:677 *430:710 4.5 
119 *430:710 *1038:A2 15.0122 
120 *430:710 *1008:A2 9.24915 
121 *430:671 *430:728 3.49641 
122 *430:728 *1009:A1 9.24915 
123 *430:728 *1083:A2 23.7169 
124 *430:667 *1123:A2 13.7491 
*END

*D_NET *431 0.000907726
*CONN
*I *1007:A1 I *D sky130_fd_sc_hd__mux2i_1
*I *1005:X O *D sky130_fd_sc_hd__mux4_2
*CAP
1 *1007:A1 0.000422477
2 *1005:X 0.000422477
3 *1007:A1 *1005:A2 6.27718e-05
*RES
1 *1005:X *1007:A1 36.7089 
*END

*D_NET *432 0.00299657
*CONN
*I *1007:A0 I *D sky130_fd_sc_hd__mux2i_1
*I *1006:X O *D sky130_fd_sc_hd__mux4_2
*CAP
1 *1007:A0 0
2 *1006:X 0.00123836
3 *432:14 0.00123836
4 *432:14 *972:B 0
5 *432:14 *1005:A2 2.84758e-05
6 *432:14 *1005:S0 0.000339397
7 *432:14 *1006:A0 0.000117376
8 *432:14 *1613:CLK 0
9 *432:14 *874:600 0
10 *432:14 *877:302 0
11 *432:14 *882:306 3.46062e-05
*RES
1 *1006:X *432:14 43.9684 
2 *432:14 *1007:A0 9.24915 
*END

*D_NET *433 0.0272452
*CONN
*I *1009:A2 I *D sky130_fd_sc_hd__a21oi_1
*I *1007:Y O *D sky130_fd_sc_hd__mux2i_1
*CAP
1 *1009:A2 0.000440768
2 *1007:Y 0.00968552
3 *433:14 0.0101263
4 *1009:A2 *1532:DE 0
5 *1009:A2 *494:14 0.000164452
6 *433:14 *1005:S0 2.02035e-05
7 *433:14 *1549:DE 0.000211009
8 *433:14 *501:14 0
9 *433:14 *859:39 0.000635589
10 *433:14 *865:239 0.000936829
11 *433:14 *865:262 0.00047722
12 *433:14 *904:68 0.00298319
13 *433:14 *904:74 0.000383992
14 *963:B *433:14 0.000476184
15 *1083:A2 *1009:A2 0.000138787
16 *1083:B1 *1009:A2 1.37189e-05
17 *1244:C *1009:A2 0.000161818
18 *1357:B *433:14 3.88232e-05
19 *1596:D *1009:A2 9.59597e-05
20 *427:88 *1009:A2 0.000254804
*RES
1 *1007:Y *433:14 46.2335 
2 *433:14 *1009:A2 29.1203 
*END

*D_NET *434 0.000510831
*CONN
*I *1009:B1 I *D sky130_fd_sc_hd__a21oi_1
*I *1008:Y O *D sky130_fd_sc_hd__o21ai_0
*CAP
1 *1009:B1 5.32633e-05
2 *1008:Y 5.32633e-05
3 *1008:A1 *1009:B1 6.08467e-05
4 *1083:B1 *1009:B1 7.88576e-05
5 *430:677 *1009:B1 6.50727e-05
6 *430:728 *1009:B1 0.000199527
*RES
1 *1008:Y *1009:B1 21.4401 
*END

*D_NET *435 0.000617252
*CONN
*I *1012:A1 I *D sky130_fd_sc_hd__mux2i_1
*I *1010:X O *D sky130_fd_sc_hd__mux4_2
*CAP
1 *1012:A1 0.000259112
2 *1010:X 0.000259112
3 *1012:A1 *1012:A0 0
4 *1012:A1 *858:157 9.9028e-05
5 *1012:A1 *880:51 0
6 *424:272 *1012:A1 0
*RES
1 *1010:X *1012:A1 32.548 
*END

*D_NET *436 0.00153284
*CONN
*I *1012:A0 I *D sky130_fd_sc_hd__mux2i_1
*I *1011:X O *D sky130_fd_sc_hd__mux4_2
*CAP
1 *1012:A0 0.000493471
2 *1011:X 0.000493471
3 *1012:A0 *437:16 3.14978e-05
4 *1012:A0 *880:51 2.13165e-05
5 *1012:A0 *880:53 0.000493085
6 *1012:A1 *1012:A0 0
7 *424:272 *1012:A0 0
*RES
1 *1011:X *1012:A0 41.0246 
*END

*D_NET *437 0.0110686
*CONN
*I *1014:A2 I *D sky130_fd_sc_hd__a21oi_1
*I *1012:Y O *D sky130_fd_sc_hd__mux2i_1
*CAP
1 *1014:A2 0.000115937
2 *1012:Y 0.00114503
3 *437:24 0.00298171
4 *437:20 0.00356335
5 *437:16 0.0018426
6 *1014:A2 *856:32 0.000251656
7 *437:16 *1010:A3 1.92926e-05
8 *437:16 *1326:C 3.96696e-05
9 *437:16 *877:29 0.000176741
10 *437:16 *877:158 6.20849e-05
11 *437:20 *1326:C 2.03156e-05
12 *437:24 *1095:A3 6.46783e-05
13 *437:24 *1503:CLK 1.78942e-05
14 *437:24 *1503:DE 2.77394e-05
15 *437:24 *865:168 0.000169392
16 *1012:A0 *437:16 3.14978e-05
17 *1503:D *437:24 4.89268e-05
18 *12:48 *437:20 8.49133e-05
19 *69:214 *437:16 0
20 *423:65 *437:16 0.000405134
21 *427:64 *1014:A2 0
*RES
1 *1012:Y *437:16 41.37 
2 *437:16 *437:20 15.4445 
3 *437:20 *437:24 45.9868 
4 *437:24 *1014:A2 18.0727 
*END

*D_NET *438 0.00313108
*CONN
*I *1014:B1 I *D sky130_fd_sc_hd__a21oi_1
*I *1013:Y O *D sky130_fd_sc_hd__o21ai_0
*CAP
1 *1014:B1 0.000353104
2 *1013:Y 0.000353104
3 *1014:B1 *900:18 0.000111343
4 *1014:B1 *900:20 8.88627e-05
5 *1113:A2 *1014:B1 0.000151726
6 *1422:D *1014:B1 0.00117237
7 *44:8 *1014:B1 0.000844431
8 *430:492 *1014:B1 5.61403e-05
*RES
1 *1013:Y *1014:B1 45.5798 
*END

*D_NET *439 0.00183675
*CONN
*I *1017:A1 I *D sky130_fd_sc_hd__mux2i_1
*I *1015:X O *D sky130_fd_sc_hd__mux4_2
*CAP
1 *1017:A1 0.000435674
2 *1015:X 0.000435674
3 *1017:A1 *1017:S 9.70888e-05
4 *1017:A1 *1145:S0 0.000111708
5 *1017:A1 *441:10 0.000729908
6 *1017:A1 *858:337 0
7 *1017:A1 *880:326 2.67011e-05
8 *1193:A *1017:A1 0
9 *1385:D *1017:A1 0
*RES
1 *1015:X *1017:A1 42.2353 
*END

*D_NET *440 0.00251417
*CONN
*I *1017:A0 I *D sky130_fd_sc_hd__mux2i_1
*I *1016:X O *D sky130_fd_sc_hd__mux4_2
*CAP
1 *1017:A0 0
2 *1016:X 0.00106834
3 *440:14 0.00106834
4 *440:14 *1015:A2 0
5 *440:14 *1016:A0 6.48653e-05
6 *440:14 *906:64 0.000312627
*RES
1 *1016:X *440:14 41.8865 
2 *440:14 *1017:A0 9.24915 
*END

*D_NET *441 0.0147808
*CONN
*I *1019:A2 I *D sky130_fd_sc_hd__a21oi_1
*I *1017:Y O *D sky130_fd_sc_hd__mux2i_1
*CAP
1 *1019:A2 0.00553845
2 *1017:Y 0.00100573
3 *441:10 0.00654418
4 *1019:A2 *1019:B1 4.04556e-05
5 *1019:A2 *1059:A2 0
6 *1019:A2 *857:339 0
7 *1019:A2 *895:47 0
8 *441:10 *1015:A0 4.9996e-05
9 *441:10 *1015:A1 0
10 *441:10 *1100:A1 0
11 *441:10 *858:337 0
12 *441:10 *876:62 2.652e-05
13 *1017:A1 *441:10 0.000729908
14 *1472:DE *1019:A2 0.000553669
15 *1568:DE *1019:A2 0
16 *81:48 *1019:A2 1.12605e-05
17 *124:62 *441:10 0.000200173
18 *430:10 *1019:A2 5.77352e-05
19 *430:12 *1019:A2 2.27135e-05
*RES
1 *1017:Y *441:10 46.1489 
2 *441:10 *1019:A2 32.5476 
*END

*D_NET *442 0.000539793
*CONN
*I *1019:B1 I *D sky130_fd_sc_hd__a21oi_1
*I *1018:Y O *D sky130_fd_sc_hd__o21ai_0
*CAP
1 *1019:B1 0.000164882
2 *1018:Y 0.000164882
3 *1019:B1 *898:86 5.53381e-05
4 *1019:A2 *1019:B1 4.04556e-05
5 *81:48 *1019:B1 9.21609e-05
6 *430:12 *1019:B1 2.20748e-05
*RES
1 *1018:Y *1019:B1 31.7175 
*END

*D_NET *443 0.00303205
*CONN
*I *1022:A1 I *D sky130_fd_sc_hd__mux2i_1
*I *1020:X O *D sky130_fd_sc_hd__mux4_2
*CAP
1 *1022:A1 0
2 *1020:X 0.000969828
3 *443:12 0.000969828
4 *443:12 *1022:A0 0.000166508
5 *443:12 *874:261 0.000141347
6 *443:12 *875:75 0
7 *443:12 *875:85 0.000379332
8 *443:12 *887:91 3.31882e-05
9 *1536:D *443:12 0.000293593
10 *1600:D *443:12 7.84221e-05
11 *11:61 *443:12 0
*RES
1 *1020:X *443:12 41.7149 
2 *443:12 *1022:A1 9.24915 
*END

*D_NET *444 0.00184234
*CONN
*I *1022:A0 I *D sky130_fd_sc_hd__mux2i_1
*I *1021:X O *D sky130_fd_sc_hd__mux4_2
*CAP
1 *1022:A0 0.000728527
2 *1021:X 0.000728527
3 *1022:A0 *445:18 2.02035e-05
4 *1022:A0 *875:69 5.48778e-05
5 *1022:A0 *875:75 6.19465e-05
6 *1022:A0 *875:397 7.60673e-05
7 *1022:A0 *887:91 5.67796e-06
8 *443:12 *1022:A0 0.000166508
*RES
1 *1021:X *1022:A0 41.965 
*END

*D_NET *445 0.0151751
*CONN
*I *1024:A2 I *D sky130_fd_sc_hd__a21oi_1
*I *1022:Y O *D sky130_fd_sc_hd__mux2i_1
*CAP
1 *1024:A2 0
2 *1022:Y 0.00305313
3 *445:18 0.00305313
4 *445:18 *1059:A2 0
5 *445:18 *1527:DE 0.000444252
6 *445:18 *2289:A 0.00699463
7 *445:18 *557:18 0.00153605
8 *445:18 *887:91 7.86825e-06
9 *1022:A0 *445:18 2.02035e-05
10 *2:11 *445:18 0
11 *81:66 *445:18 1.37566e-05
12 *430:18 *445:18 3.00174e-06
13 *430:20 *445:18 4.90487e-05
*RES
1 *1022:Y *445:18 47.0804 
2 *445:18 *1024:A2 9.24915 
*END

*D_NET *446 0.00167784
*CONN
*I *1024:B1 I *D sky130_fd_sc_hd__a21oi_1
*I *1023:Y O *D sky130_fd_sc_hd__o21ai_0
*CAP
1 *1024:B1 0.000715039
2 *1023:Y 0.000715039
3 data_out[3] *1024:B1 0
4 *1023:A1 *1024:B1 0
5 *1423:D *1024:B1 0
6 *1424:D *1024:B1 0
7 *72:13 *1024:B1 1.99312e-05
8 *81:66 *1024:B1 0.000227832
*RES
1 *1023:Y *1024:B1 45.8417 
*END

*D_NET *447 0.00121424
*CONN
*I *1027:A1 I *D sky130_fd_sc_hd__mux2i_1
*I *1025:X O *D sky130_fd_sc_hd__mux4_2
*CAP
1 *1027:A1 0.000424236
2 *1025:X 0.000424236
3 *1027:A1 *1027:A0 6.50586e-05
4 *1027:A1 *876:410 0
5 *1027:A1 *876:414 8.86714e-05
6 *1027:A1 *883:127 1.6429e-05
7 *417:461 *1027:A1 0.000195605
*RES
1 *1025:X *1027:A1 37.7082 
*END

*D_NET *448 0.00383281
*CONN
*I *1027:A0 I *D sky130_fd_sc_hd__mux2i_1
*I *1026:X O *D sky130_fd_sc_hd__mux4_2
*CAP
1 *1027:A0 0.00108633
2 *1026:X 0.000448221
3 *448:14 0.00153456
4 *1027:A0 *1026:A3 1.15904e-05
5 *1027:A0 *1383:CLK 0.000163253
6 *1027:A0 *876:414 2.58616e-05
7 *1027:A0 *878:148 0
8 *1027:A0 *888:12 0.000319278
9 *448:14 *1026:S0 7.23555e-05
10 *1027:A1 *1027:A0 6.50586e-05
11 *1223:A *1027:A0 2.47663e-05
12 *19:64 *1027:A0 0
13 *69:489 *1027:A0 2.60879e-06
14 *69:503 *1027:A0 7.89235e-05
*RES
1 *1026:X *448:14 22.454 
2 *448:14 *1027:A0 42.0502 
*END

*D_NET *449 0.0366146
*CONN
*I *1029:A2 I *D sky130_fd_sc_hd__a21oi_1
*I *1027:Y O *D sky130_fd_sc_hd__mux2i_1
*CAP
1 *1029:A2 0.000479974
2 *1027:Y 0.00599401
3 *449:14 0.00647398
4 *449:14 *1154:A2 0
5 *449:14 *1383:CLK 1.91246e-05
6 *449:14 *1383:DE 0.00107718
7 *449:14 *537:16 0.0171169
8 *449:14 *858:402 0.00053241
9 *449:14 *880:320 0.00142413
10 *449:14 *880:326 0.000249272
11 *449:14 *880:339 0.000172389
12 *449:14 *880:358 0.000147025
13 *931:D *1029:A2 0.000331601
14 *933:D *1029:A2 2.67514e-05
15 *81:410 *1029:A2 0.000428753
16 *81:425 *1029:A2 0.000308675
17 *418:377 *449:14 0.00140709
18 *418:418 *449:14 0.000425337
19 *430:311 *1029:A2 0
*RES
1 *1027:Y *449:14 43.7858 
2 *449:14 *1029:A2 29.1203 
*END

*D_NET *450 0.000821427
*CONN
*I *1029:B1 I *D sky130_fd_sc_hd__a21oi_1
*I *1028:Y O *D sky130_fd_sc_hd__o21ai_0
*CAP
1 *1029:B1 0.000178938
2 *1028:Y 0.000178938
3 *1425:D *1029:B1 3.79204e-05
4 *81:11 *1029:B1 2.24484e-05
5 *81:13 *1029:B1 0.00012568
6 *81:410 *1029:B1 0.000277502
*RES
1 *1028:Y *1029:B1 33.6572 
*END

*D_NET *451 0.00355749
*CONN
*I *1032:A1 I *D sky130_fd_sc_hd__mux2i_1
*I *1030:X O *D sky130_fd_sc_hd__mux4_2
*CAP
1 *1032:A1 0
2 *1030:X 0.00147525
3 *451:14 0.00147525
4 *451:14 *1030:A0 8.57899e-05
5 *451:14 *1030:A1 6.77202e-05
6 *451:14 *1032:A0 3.81675e-05
7 *451:14 *868:56 1.15571e-05
8 *451:14 *903:79 0.000126435
9 *1032:S *451:14 0.000186629
10 *1458:D *451:14 4.91225e-06
11 *1537:D *451:14 8.57899e-05
*RES
1 *1030:X *451:14 42.4554 
2 *451:14 *1032:A1 9.24915 
*END

*D_NET *452 0.00133622
*CONN
*I *1032:A0 I *D sky130_fd_sc_hd__mux2i_1
*I *1031:X O *D sky130_fd_sc_hd__mux4_2
*CAP
1 *1032:A0 0.00029384
2 *1031:X 0.00029384
3 *1032:A0 *1031:A0 0.00034079
4 *1458:D *1032:A0 0.000154145
5 *69:75 *1032:A0 0.000215436
6 *451:14 *1032:A0 3.81675e-05
*RES
1 *1031:X *1032:A0 37.7026 
*END

*D_NET *453 0.00347289
*CONN
*I *1034:A2 I *D sky130_fd_sc_hd__a21oi_1
*I *1032:Y O *D sky130_fd_sc_hd__mux2i_1
*CAP
1 *1034:A2 0.00168775
2 *1032:Y 0.00168775
3 *1034:A2 *477:18 0
4 *1426:D *1034:A2 3.93117e-06
5 *1458:D *1034:A2 7.13655e-06
6 *28:11 *1034:A2 8.6323e-05
*RES
1 *1032:Y *1034:A2 38.944 
*END

*D_NET *454 0.000459177
*CONN
*I *1034:B1 I *D sky130_fd_sc_hd__a21oi_1
*I *1033:Y O *D sky130_fd_sc_hd__o21ai_0
*CAP
1 *1034:B1 9.08444e-05
2 *1033:Y 9.08444e-05
3 *430:611 *1034:B1 0.000277488
*RES
1 *1033:Y *1034:B1 21.4401 
*END

*D_NET *455 0.00152259
*CONN
*I *1037:A1 I *D sky130_fd_sc_hd__mux2i_1
*I *1035:X O *D sky130_fd_sc_hd__mux4_2
*CAP
1 *1037:A1 0.000362692
2 *1035:X 0.000362692
3 *1037:A1 *1035:A0 2.99929e-05
4 *1037:A1 *1037:A0 0.000157785
5 *1037:A1 *1037:S 6.53912e-05
6 *1037:A1 *1171:B 0.000357388
7 *1037:A1 *457:16 0
8 *20:21 *1037:A1 0.000146384
9 *20:34 *1037:A1 4.02636e-05
*RES
1 *1035:X *1037:A1 40.0253 
*END

*D_NET *456 0.00103731
*CONN
*I *1037:A0 I *D sky130_fd_sc_hd__mux2i_1
*I *1036:X O *D sky130_fd_sc_hd__mux4_2
*CAP
1 *1037:A0 0.000177105
2 *1036:X 0.000177105
3 *1037:A0 *1035:S1 0
4 *1037:A0 *1171:B 2.20471e-05
5 *1037:A0 *1480:DE 0.000459485
6 *1037:A1 *1037:A0 0.000157785
7 *20:34 *1037:A0 4.37789e-05
*RES
1 *1036:X *1037:A0 34.9058 
*END

*D_NET *457 0.0131604
*CONN
*I *1039:A2 I *D sky130_fd_sc_hd__a21oi_1
*I *1037:Y O *D sky130_fd_sc_hd__mux2i_1
*CAP
1 *1039:A2 0
2 *1037:Y 0.00550175
3 *457:16 0.00550175
4 *457:16 *1035:A0 0
5 *457:16 *1035:A1 4.3305e-05
6 *457:16 *1035:S1 0.000217129
7 *457:16 *1037:S 0
8 *457:16 *1508:DE 0.000128143
9 *457:16 *525:18 0.0012752
10 *457:16 *858:85 0.000493103
11 *457:16 *903:106 0
12 *1037:A1 *457:16 0
13 *1427:D *457:16 0
*RES
1 *1037:Y *457:16 48.7107 
2 *457:16 *1039:A2 13.7491 
*END

*D_NET *458 0.00390813
*CONN
*I *1039:B1 I *D sky130_fd_sc_hd__a21oi_1
*I *1038:Y O *D sky130_fd_sc_hd__o21ai_0
*CAP
1 *1039:B1 0
2 *1038:Y 0.000850604
3 *458:12 0.000850604
4 *458:12 *1124:B1 0.000899085
5 *458:12 *494:14 0.000253916
6 *458:12 *525:18 0
7 *1008:A1 *458:12 5.51483e-06
8 *1038:A2 *458:12 0.000377259
9 *1039:A1 *458:12 2.99929e-05
10 *1421:D *458:12 0.000285517
11 *1427:D *458:12 6.14128e-05
12 *1444:D *458:12 0.000294226
*RES
1 *1038:Y *458:12 44.0699 
2 *458:12 *1039:B1 9.24915 
*END

*D_NET *459 0.00566101
*CONN
*I *1042:A1 I *D sky130_fd_sc_hd__mux2i_1
*I *1040:X O *D sky130_fd_sc_hd__mux4_2
*CAP
1 *1042:A1 0.00119464
2 *1040:X 0.000823879
3 *459:18 0.00201852
4 *1042:A1 *1042:A0 7.48633e-05
5 *1042:A1 *1652:DE 3.37073e-06
6 *1042:A1 *885:89 2.91891e-05
7 *459:18 *1040:A2 0.000654597
8 *459:18 *857:45 4.26659e-05
9 *459:18 *874:44 7.14746e-05
10 *459:18 *874:54 3.17456e-05
11 *1042:S *1042:A1 9.46208e-05
12 *1200:A *459:18 2.16355e-05
13 *1200:B *459:18 3.37866e-05
14 *1264:A *459:18 9.47057e-05
15 *1456:DE *1042:A1 1.48784e-05
16 *1456:DE *459:18 0.000142892
17 *1652:D *1042:A1 2.75475e-05
18 *26:32 *459:18 9.24241e-05
19 *26:38 *459:18 8.16827e-05
20 *418:44 *459:18 0.000111889
*RES
1 *1040:X *459:18 40.2891 
2 *459:18 *1042:A1 26.9121 
*END

*D_NET *460 0.00103605
*CONN
*I *1042:A0 I *D sky130_fd_sc_hd__mux2i_1
*I *1041:X O *D sky130_fd_sc_hd__mux4_2
*CAP
1 *1042:A0 0.000375561
2 *1041:X 0.000375561
3 *1042:A0 *1041:A0 7.37562e-05
4 *1042:A0 *1041:A1 0
5 *1042:A0 *885:89 0.000118166
6 *1041:S0 *1042:A0 1.81467e-05
7 *1042:A1 *1042:A0 7.48633e-05
8 *70:44 *1042:A0 0
*RES
1 *1041:X *1042:A0 37.3115 
*END

*D_NET *461 0.00307615
*CONN
*I *1044:A2 I *D sky130_fd_sc_hd__a21oi_1
*I *1042:Y O *D sky130_fd_sc_hd__mux2i_1
*CAP
1 *1044:A2 0
2 *1042:Y 0.000966258
3 *461:12 0.000966258
4 *461:12 *1041:A1 0.000111728
5 *461:12 *1620:CLK 5.52748e-05
6 *461:12 *885:89 6.52301e-05
7 *1620:D *461:12 0.000840977
8 *1620:DE *461:12 3.39728e-05
9 *69:47 *461:12 0
10 *127:39 *461:12 3.6455e-05
*RES
1 *1042:Y *461:12 44.9284 
2 *461:12 *1044:A2 9.24915 
*END

*D_NET *462 0.00222866
*CONN
*I *1044:B1 I *D sky130_fd_sc_hd__a21oi_1
*I *1043:Y O *D sky130_fd_sc_hd__o21ai_0
*CAP
1 *1044:B1 0.000712223
2 *1043:Y 0.000712223
3 *1428:D *1044:B1 0.000133667
4 *1452:D *1044:B1 0.000153225
5 *430:22 *1044:B1 9.53481e-05
6 *430:24 *1044:B1 5.22071e-05
7 *430:28 *1044:B1 9.28672e-05
8 *430:32 *1044:B1 6.92705e-05
9 *430:145 *1044:B1 0.000207629
*RES
1 *1043:Y *1044:B1 46.0105 
*END

*D_NET *463 0.000418492
*CONN
*I *1047:A1 I *D sky130_fd_sc_hd__mux2i_1
*I *1045:X O *D sky130_fd_sc_hd__mux4_2
*CAP
1 *1047:A1 0.000143284
2 *1045:X 0.000143284
3 *1047:A1 *1045:S0 6.5568e-05
4 *1047:A1 *464:26 2.58616e-05
5 *1047:A1 *870:82 4.04935e-05
*RES
1 *1045:X *1047:A1 30.7771 
*END

*D_NET *464 0.00329176
*CONN
*I *1047:A0 I *D sky130_fd_sc_hd__mux2i_1
*I *1046:X O *D sky130_fd_sc_hd__mux4_2
*CAP
1 *1047:A0 0
2 *1046:X 0.00116746
3 *464:26 0.00116746
4 *464:26 *1046:A1 6.50088e-05
5 *464:26 *1046:A2 0.0003298
6 *464:26 *1046:A3 4.14448e-05
7 *464:26 *1047:S 0.000365663
8 *464:26 *1621:CLK 2.84892e-05
9 *464:26 *1621:DE 2.90638e-06
10 *464:26 *465:12 2.16355e-05
11 *464:26 *880:425 6.36477e-05
12 *464:26 *881:486 3.00174e-06
13 *1047:A1 *464:26 2.58616e-05
14 *1621:D *464:26 9.37197e-06
*RES
1 *1046:X *464:26 44.5479 
2 *464:26 *1047:A0 9.24915 
*END

*D_NET *465 0.0337158
*CONN
*I *1049:A2 I *D sky130_fd_sc_hd__a21oi_1
*I *1047:Y O *D sky130_fd_sc_hd__mux2i_1
*CAP
1 *1049:A2 0
2 *1047:Y 0.000714009
3 *465:34 0.00967584
4 *465:24 0.0107998
5 *465:12 0.00183798
6 *465:12 *1045:A1 0.000176652
7 *465:12 *1110:A0 0.000100953
8 *465:12 *1110:A1 0.000104731
9 *465:12 *870:82 1.64597e-05
10 *465:12 *870:88 0.000106168
11 *465:12 *870:98 0
12 *465:12 *878:154 0.00066778
13 *465:12 *878:160 0.000199159
14 *465:12 *878:174 0.000684676
15 *465:12 *881:387 0.000201059
16 *465:24 *1070:A3 0.000279539
17 *465:24 *1112:A0 6.50727e-05
18 *465:24 *1306:B 7.56672e-05
19 *465:24 *1466:DE 0.000572331
20 *465:24 *870:106 0
21 *465:24 *874:752 0.000262597
22 *465:24 *878:184 9.00342e-05
23 *465:24 *881:405 0.000206911
24 *465:24 *881:417 0.000122497
25 *465:34 *1085:A0 0
26 *465:34 *1085:A1 0.000298701
27 *465:34 *1654:DE 0.00299689
28 *465:34 *469:18 0.00131757
29 *465:34 *856:42 0
30 *465:34 *858:24 0.000427183
31 *465:34 *881:417 5.7907e-05
32 *465:34 *881:433 0.000416394
33 *465:34 *903:268 4.38221e-05
34 *988:A *465:24 0
35 *1562:D *465:24 2.47808e-05
36 *1562:DE *465:24 0.000373642
37 *1563:DE *465:34 0.000225731
38 *8:31 *465:24 2.705e-05
39 *8:31 *465:34 0.000145832
40 *8:74 *465:34 0
41 *14:9 *465:12 2.86152e-05
42 *24:17 *465:34 0
43 *427:482 *465:24 0.000350086
44 *464:26 *465:12 2.16355e-05
*RES
1 *1047:Y *465:12 48.7658 
2 *465:12 *465:24 46.4145 
3 *465:24 *465:34 47.6263 
4 *465:34 *1049:A2 13.7491 
*END

*D_NET *466 0.000935698
*CONN
*I *1049:B1 I *D sky130_fd_sc_hd__a21oi_1
*I *1048:Y O *D sky130_fd_sc_hd__o21ai_0
*CAP
1 *1049:B1 0.000202643
2 *1048:Y 0.000202643
3 *1049:B1 *1054:B1 0.000275256
4 *1048:A1 *1049:B1 0
5 *1053:A2 *1049:B1 5.04829e-06
6 *1053:B1 *1049:B1 2.65831e-05
7 *1429:D *1049:B1 3.39895e-05
8 *24:17 *1049:B1 6.92705e-05
9 *81:150 *1049:B1 0.000115965
10 *81:152 *1049:B1 4.30017e-06
*RES
1 *1048:Y *1049:B1 34.1047 
*END

*D_NET *467 0.000405138
*CONN
*I *1052:A1 I *D sky130_fd_sc_hd__mux2i_1
*I *1050:X O *D sky130_fd_sc_hd__mux4_2
*CAP
1 *1052:A1 0.000106482
2 *1050:X 0.000106482
3 *1052:A1 *1050:A0 3.99031e-05
4 *1052:A1 *1051:S0 3.99031e-05
5 *1052:A1 *880:189 0.000112367
*RES
1 *1050:X *1052:A1 30.6083 
*END

*D_NET *468 0.00222673
*CONN
*I *1052:A0 I *D sky130_fd_sc_hd__mux2i_1
*I *1051:X O *D sky130_fd_sc_hd__mux4_2
*CAP
1 *1052:A0 0.000604327
2 *1051:X 0.000604327
3 *1052:A0 *1051:A1 0.000168313
4 *1052:A0 *1051:S0 0
5 *1052:A0 *876:196 0.000264502
6 *1052:A0 *880:189 0.00030767
7 *1052:A0 *903:268 0.00027759
*RES
1 *1051:X *1052:A0 45.0462 
*END

*D_NET *469 0.0196121
*CONN
*I *1054:A2 I *D sky130_fd_sc_hd__a21oi_1
*I *1052:Y O *D sky130_fd_sc_hd__mux2i_1
*CAP
1 *1054:A2 0
2 *1052:Y 0.00614885
3 *469:18 0.00614885
4 *469:18 *1050:A0 0.000130467
5 *469:18 *1109:A2 0
6 *469:18 *1515:DE 0.000320284
7 *469:18 *1654:DE 0.000522711
8 *469:18 *858:24 8.43934e-05
9 *469:18 *880:189 0.000127109
10 *469:18 *903:234 0.000565429
11 *469:18 *903:249 0.00302598
12 *469:18 *903:268 0.00119673
13 *430:400 *469:18 2.37478e-05
14 *465:34 *469:18 0.00131757
*RES
1 *1052:Y *469:18 46.9161 
2 *469:18 *1054:A2 9.24915 
*END

*D_NET *470 0.00147827
*CONN
*I *1054:B1 I *D sky130_fd_sc_hd__a21oi_1
*I *1053:Y O *D sky130_fd_sc_hd__o21ai_0
*CAP
1 *1054:B1 0.000584705
2 *1053:Y 0.000584705
3 *1054:B1 *490:18 1.43848e-05
4 *1054:B1 *856:42 0
5 *1054:B1 *898:43 0
6 *1049:B1 *1054:B1 0.000275256
7 *24:17 *1054:B1 1.92172e-05
*RES
1 *1053:Y *1054:B1 39.0961 
*END

*D_NET *471 0.00484631
*CONN
*I *1057:A1 I *D sky130_fd_sc_hd__mux2i_1
*I *1055:X O *D sky130_fd_sc_hd__mux4_2
*CAP
1 *1057:A1 0.000522172
2 *1055:X 0.000746568
3 *471:18 0.00126874
4 *471:18 *1055:A2 6.27718e-05
5 *1175:A *1057:A1 4.43579e-05
6 *68:77 *471:18 0
7 *70:34 *1057:A1 4.95892e-05
8 *70:40 *1057:A1 0.000208606
9 *417:84 *1057:A1 0.000795797
10 *417:86 *1057:A1 0.000745171
11 *418:34 *471:18 0.000269601
12 *424:45 *1057:A1 0.000110169
13 *424:51 *1057:A1 2.27677e-05
*RES
1 *1055:X *471:18 33.2172 
2 *471:18 *1057:A1 29.3837 
*END

*D_NET *472 0.00131956
*CONN
*I *1057:A0 I *D sky130_fd_sc_hd__mux2i_1
*I *1056:X O *D sky130_fd_sc_hd__mux4_2
*CAP
1 *1057:A0 0.000405169
2 *1056:X 0.000405169
3 *1057:A0 *1056:A0 6.08467e-05
4 *1057:A0 *1056:A1 2.8322e-05
5 *1057:A0 *1056:A3 0
6 *1057:A0 *1059:A2 0.000368312
7 *69:41 *1057:A0 4.38138e-05
8 *417:86 *1057:A0 7.92757e-06
*RES
1 *1056:X *1057:A0 38.2572 
*END

*D_NET *473 0.00689794
*CONN
*I *1059:A2 I *D sky130_fd_sc_hd__a21oi_1
*I *1057:Y O *D sky130_fd_sc_hd__mux2i_1
*CAP
1 *1059:A2 0.00184381
2 *1057:Y 0.00184381
3 *1059:A2 *1056:A0 1.5714e-05
4 *1059:A2 *1056:A1 4.28349e-06
5 *1059:A2 *1059:B1 3.20069e-06
6 *1059:A2 *857:339 0.000239612
7 data_out[2] *1059:A2 0
8 data_out[3] *1059:A2 0.000113657
9 *1019:A2 *1059:A2 0
10 *1057:A0 *1059:A2 0.000368312
11 *1431:D *1059:A2 3.11933e-06
12 *2:11 *1059:A2 0.00200774
13 *70:40 *1059:A2 0
14 *128:32 *1059:A2 0.000188624
15 *417:86 *1059:A2 0.000266064
16 *445:18 *1059:A2 0
*RES
1 *1057:Y *1059:A2 48.5844 
*END

*D_NET *474 0.000536655
*CONN
*I *1059:B1 I *D sky130_fd_sc_hd__a21oi_1
*I *1058:Y O *D sky130_fd_sc_hd__o21ai_0
*CAP
1 *1059:B1 0.000218025
2 *1058:Y 0.000218025
3 *1059:B1 *901:20 0
4 *1058:A1 *1059:B1 7.34948e-06
5 *1058:A2 *1059:B1 1.31657e-05
6 *1059:A2 *1059:B1 3.20069e-06
7 *1431:D *1059:B1 5.25994e-05
8 *81:74 *1059:B1 2.42889e-05
*RES
1 *1058:Y *1059:B1 32.1622 
*END

*D_NET *475 0.000862375
*CONN
*I *1062:A1 I *D sky130_fd_sc_hd__mux2i_1
*I *1060:X O *D sky130_fd_sc_hd__mux4_2
*CAP
1 *1062:A1 0.000343542
2 *1060:X 0.000343542
3 *1062:A1 *857:160 0.00017529
4 *1062:A1 *881:119 0
*RES
1 *1060:X *1062:A1 35.0395 
*END

*D_NET *476 0.00162045
*CONN
*I *1062:A0 I *D sky130_fd_sc_hd__mux2i_1
*I *1061:X O *D sky130_fd_sc_hd__mux4_2
*CAP
1 *1062:A0 0.000629931
2 *1061:X 0.000629931
3 *1062:A0 *1061:A0 2.99929e-05
4 *1062:A0 *1061:A1 0
5 *1062:A0 *1062:S 0.000330596
6 *1062:A0 *477:18 0
7 *1062:A0 *881:119 0
8 *423:167 *1062:A0 0
*RES
1 *1061:X *1062:A0 43.208 
*END

*D_NET *477 0.0219892
*CONN
*I *1064:A2 I *D sky130_fd_sc_hd__a21oi_1
*I *1062:Y O *D sky130_fd_sc_hd__mux2i_1
*CAP
1 *1064:A2 0
2 *1062:Y 0.0052402
3 *477:18 0.0052402
4 *477:18 *1079:A2 0.0109925
5 *477:18 *1569:DE 0.000235716
6 *477:18 *863:100 0.000263596
7 *477:18 *881:119 0
8 *477:18 *896:61 0
9 *1034:A1 *477:18 0
10 *1034:A2 *477:18 0
11 *1062:A0 *477:18 0
12 *1432:D *477:18 1.70638e-05
*RES
1 *1062:Y *477:18 45.0258 
2 *477:18 *1064:A2 9.24915 
*END

*D_NET *478 0.000414441
*CONN
*I *1064:B1 I *D sky130_fd_sc_hd__a21oi_1
*I *1063:Y O *D sky130_fd_sc_hd__o21ai_0
*CAP
1 *1064:B1 7.05754e-05
2 *1063:Y 7.05754e-05
3 *430:412 *1064:B1 0.00027329
*RES
1 *1063:Y *1064:B1 21.4401 
*END

*D_NET *479 0.00295289
*CONN
*I *1067:A1 I *D sky130_fd_sc_hd__mux2i_1
*I *1065:X O *D sky130_fd_sc_hd__mux4_2
*CAP
1 *1067:A1 0
2 *1065:X 0.00120216
3 *479:12 0.00120216
4 *479:12 *1067:S 0.000151228
5 *479:12 *1085:S0 0.000179286
6 *479:12 *1274:B 0
7 *479:12 *876:186 5.25402e-05
8 *479:12 *890:8 0.000165521
*RES
1 *1065:X *479:12 45.8982 
2 *479:12 *1067:A1 9.24915 
*END

*D_NET *480 0.00158531
*CONN
*I *1067:A0 I *D sky130_fd_sc_hd__mux2i_1
*I *1066:X O *D sky130_fd_sc_hd__mux4_2
*CAP
1 *1067:A0 0.000532019
2 *1066:X 0.000532019
3 *1067:A0 *882:133 0.000111208
4 *1067:A0 *890:117 9.16203e-05
5 *1067:A0 *890:137 7.92757e-06
6 *1657:D *1067:A0 0.000310519
7 *4:82 *1067:A0 0
*RES
1 *1066:X *1067:A0 38.7824 
*END

*D_NET *481 0.0207149
*CONN
*I *1069:A2 I *D sky130_fd_sc_hd__a21oi_1
*I *1067:Y O *D sky130_fd_sc_hd__mux2i_1
*CAP
1 *1069:A2 0.000397615
2 *1067:Y 0.00644144
3 *481:14 0.00683906
4 *1069:A2 *1114:A2 0
5 *481:14 *984:B 0.000125657
6 *481:14 *1337:C 4.33249e-05
7 *481:14 *1539:DE 3.70027e-06
8 *481:14 *2288:A 0.00040608
9 *481:14 *2294:A 0.000641386
10 *481:14 *856:128 3.97291e-05
11 *481:14 *863:73 0
12 *481:14 *865:57 1.76021e-05
13 *481:14 *865:67 0
14 *481:14 *865:199 4.35506e-05
15 *481:14 *890:117 2.02035e-05
16 *481:14 *895:27 6.08199e-05
17 *481:14 *896:16 1.04399e-05
18 *481:14 *896:45 0.000160131
19 *1433:D *1069:A2 0.000103571
20 *1442:D *1069:A2 0
21 *1535:D *1069:A2 0
22 *1657:D *481:14 7.86825e-06
23 *4:7 *481:14 1.80915e-05
24 *4:17 *481:14 3.77721e-05
25 *12:17 *481:14 0.00516467
26 *430:371 *1069:A2 8.62625e-06
27 *430:377 *1069:A2 0.000123582
*RES
1 *1067:Y *481:14 39.9613 
2 *481:14 *1069:A2 24.0938 
*END

*D_NET *482 0.000467341
*CONN
*I *1069:B1 I *D sky130_fd_sc_hd__a21oi_1
*I *1068:Y O *D sky130_fd_sc_hd__o21ai_0
*CAP
1 *1069:B1 9.81483e-05
2 *1068:Y 9.81483e-05
3 *1068:A2 *1069:B1 0.000271044
*RES
1 *1068:Y *1069:B1 21.4401 
*END

*D_NET *483 0.00196255
*CONN
*I *1072:A1 I *D sky130_fd_sc_hd__mux2i_1
*I *1070:X O *D sky130_fd_sc_hd__mux4_2
*CAP
1 *1072:A1 0.000656574
2 *1070:X 0.000656574
3 *1072:A1 *484:14 0.000134954
4 *1072:A1 *870:98 0
5 *1072:A1 *890:267 0
6 *1530:D *1072:A1 5.08824e-05
7 *125:99 *1072:A1 0
8 *126:139 *1072:A1 0.000463561
*RES
1 *1070:X *1072:A1 44.0708 
*END

*D_NET *484 0.0029248
*CONN
*I *1072:A0 I *D sky130_fd_sc_hd__mux2i_1
*I *1071:X O *D sky130_fd_sc_hd__mux4_2
*CAP
1 *1072:A0 0
2 *1071:X 0.00126052
3 *484:14 0.00126052
4 *484:14 *1070:A1 2.41274e-06
5 *484:14 *1071:A0 0.000110884
6 *484:14 *1071:A3 8.99383e-05
7 *484:14 *1072:S 6.55651e-05
8 *1072:A1 *484:14 0.000134954
*RES
1 *1071:X *484:14 48.971 
2 *484:14 *1072:A0 9.24915 
*END

*D_NET *485 0.0243651
*CONN
*I *1074:A2 I *D sky130_fd_sc_hd__a21oi_1
*I *1072:Y O *D sky130_fd_sc_hd__mux2i_1
*CAP
1 *1074:A2 0
2 *1072:Y 0.00844557
3 *485:20 0.00844557
4 *485:20 *517:10 7.86825e-06
5 *485:20 *521:22 0.00697783
6 *485:20 *856:30 4.40858e-05
7 *485:20 *858:173 0.000310952
8 *485:20 *869:12 0
9 *485:20 *870:98 7.13655e-06
10 *67:18 *485:20 2.37383e-05
11 *68:302 *485:20 0
12 *123:43 *485:20 0.00010238
13 *418:459 *485:20 0
*RES
1 *1072:Y *485:20 45.7104 
2 *485:20 *1074:A2 13.7491 
*END

*D_NET *486 0.00123306
*CONN
*I *1074:B1 I *D sky130_fd_sc_hd__a21oi_1
*I *1073:Y O *D sky130_fd_sc_hd__o21ai_0
*CAP
1 *1074:B1 0.000482335
2 *1073:Y 0.000482335
3 *1074:B1 *1119:B1 6.3657e-05
4 *1074:A1 *1074:B1 3.86121e-05
5 *430:61 *1074:B1 0.000134521
6 *430:65 *1074:B1 3.16037e-05
*RES
1 *1073:Y *1074:B1 26.4556 
*END

*D_NET *487 0.00280774
*CONN
*I *1077:A1 I *D sky130_fd_sc_hd__mux2i_1
*I *1075:X O *D sky130_fd_sc_hd__mux4_2
*CAP
1 *1077:A1 0
2 *1075:X 0.000795562
3 *487:14 0.000795562
4 *487:14 *1075:A0 0
5 *487:14 *1531:CLK 0.000134976
6 *487:14 *488:14 0.000116755
7 *487:14 *866:74 7.06318e-05
8 *487:14 *882:304 2.65831e-05
9 *986:A *487:14 0.000177863
10 *1307:A *487:14 0.000357875
11 *1563:D *487:14 0
12 *1563:DE *487:14 0
13 *6:13 *487:14 2.9595e-05
14 *6:23 *487:14 0.000285509
15 *427:524 *487:14 0
16 *427:536 *487:14 1.68301e-05
*RES
1 *1075:X *487:14 42.2961 
2 *487:14 *1077:A1 9.24915 
*END

*D_NET *488 0.00243458
*CONN
*I *1077:A0 I *D sky130_fd_sc_hd__mux2i_1
*I *1076:X O *D sky130_fd_sc_hd__mux4_2
*CAP
1 *1077:A0 0
2 *1076:X 0.000935922
3 *488:14 0.000935922
4 *488:14 *1076:A1 0.000100175
5 *488:14 *1076:A3 0.000111719
6 *488:14 *489:12 0.000111708
7 *488:14 *880:275 0.000122378
8 *487:14 *488:14 0.000116755
*RES
1 *1076:X *488:14 41.3515 
2 *488:14 *1077:A0 9.24915 
*END

*D_NET *489 0.0311517
*CONN
*I *1079:A2 I *D sky130_fd_sc_hd__a21oi_1
*I *1077:Y O *D sky130_fd_sc_hd__mux2i_1
*CAP
1 *1079:A2 0.00905503
2 *1077:Y 0.000234574
3 *489:12 0.00928961
4 *1079:A2 *1109:A2 0
5 *1079:A2 *2295:A 0
6 *1079:A2 *859:67 0
7 *1079:A2 *865:199 0.000168163
8 *1079:A2 *881:259 0
9 *489:12 *1075:A0 0.000101812
10 *489:12 *874:633 0.00015373
11 *489:12 *874:652 0.000193108
12 *1435:D *1079:A2 7.18816e-06
13 *1627:D *489:12 0.000126374
14 *6:11 *1079:A2 0.000410844
15 *32:15 *1079:A2 5.39224e-05
16 *427:524 *489:12 0.000127179
17 *427:530 *489:12 0.000125977
18 *477:18 *1079:A2 0.0109925
19 *488:14 *489:12 0.000111708
*RES
1 *1077:Y *489:12 27.4948 
2 *489:12 *1079:A2 42.9412 
*END

*D_NET *490 0.00292631
*CONN
*I *1079:B1 I *D sky130_fd_sc_hd__a21oi_1
*I *1078:Y O *D sky130_fd_sc_hd__o21ai_0
*CAP
1 *1079:B1 0
2 *1078:Y 0.000921224
3 *490:18 0.000921224
4 *490:18 *856:42 0
5 *490:18 *899:10 4.01437e-05
6 *490:18 *899:27 0
7 *1054:B1 *490:18 1.43848e-05
8 *1078:A2 *490:18 1.00937e-05
9 *1078:B1 *490:18 0.000173563
10 *1435:D *490:18 0.000468418
11 *81:150 *490:18 0.000106215
12 *81:152 *490:18 0.000210197
13 *430:408 *490:18 6.08467e-05
*RES
1 *1078:Y *490:18 42.6396 
2 *490:18 *1079:B1 9.24915 
*END

*D_NET *491 0.0022058
*CONN
*I *1082:A1 I *D sky130_fd_sc_hd__mux2i_1
*I *1080:X O *D sky130_fd_sc_hd__mux4_2
*CAP
1 *1082:A1 0.000806339
2 *1080:X 0.000806339
3 *1082:A1 *1082:A0 6.27718e-05
4 *1082:S *1082:A1 0.000366486
5 *1120:S0 *1082:A1 0.00016386
*RES
1 *1080:X *1082:A1 39.091 
*END

*D_NET *492 0.00118069
*CONN
*I *1082:A0 I *D sky130_fd_sc_hd__mux2i_1
*I *1081:X O *D sky130_fd_sc_hd__mux4_2
*CAP
1 *1082:A0 0.000314592
2 *1081:X 0.000314592
3 *1082:A0 *1081:A0 0.000210219
4 *1082:A0 *493:16 6.46815e-05
5 *963:B *1082:A0 0
6 *1082:A1 *1082:A0 6.27718e-05
7 *1276:C *1082:A0 0.000145115
8 *424:113 *1082:A0 6.87227e-05
*RES
1 *1081:X *1082:A0 38.6374 
*END

*D_NET *493 0.00507821
*CONN
*I *1084:A2 I *D sky130_fd_sc_hd__a21oi_1
*I *1082:Y O *D sky130_fd_sc_hd__mux2i_1
*CAP
1 *1084:A2 0.000640657
2 *1082:Y 0.00136862
3 *493:16 0.00200928
4 *1084:A2 *1124:B1 0.000111722
5 *1084:A2 *525:18 0.000110257
6 *493:16 *1081:A0 7.11056e-05
7 *493:16 *1081:A2 3.6928e-05
8 *493:16 *1660:DE 2.67687e-05
9 *493:16 *894:41 0.000104957
10 *493:16 *894:51 0.000181487
11 *1082:A0 *493:16 6.46815e-05
12 *1124:A1 *1084:A2 1.43983e-05
13 *1244:C *1084:A2 3.89122e-05
14 *1500:D *493:16 3.00073e-05
15 *1532:D *1084:A2 0.000222149
16 *430:690 *1084:A2 4.6284e-05
*RES
1 *1082:Y *493:16 44.1405 
2 *493:16 *1084:A2 26.0802 
*END

*D_NET *494 0.00368244
*CONN
*I *1084:B1 I *D sky130_fd_sc_hd__a21oi_1
*I *1083:Y O *D sky130_fd_sc_hd__o21ai_0
*CAP
1 *1084:B1 0
2 *1083:Y 0.000625563
3 *494:14 0.000625563
4 *494:14 *1124:B1 0
5 *1008:A1 *494:14 0.000115616
6 *1009:A2 *494:14 0.000164452
7 *1083:A2 *494:14 7.02172e-06
8 *1083:B1 *494:14 0.0007868
9 *1123:A1 *494:14 4.67418e-06
10 *1427:D *494:14 6.36773e-05
11 *33:10 *494:14 2.29568e-05
12 *48:10 *494:14 4.74429e-05
13 *430:683 *494:14 0.000949422
14 *430:690 *494:14 7.34948e-06
15 *430:728 *494:14 7.98425e-06
16 *458:12 *494:14 0.000253916
*RES
1 *1083:Y *494:14 44.9354 
2 *494:14 *1084:B1 9.24915 
*END

*D_NET *495 0.000759929
*CONN
*I *1087:A1 I *D sky130_fd_sc_hd__mux2i_1
*I *1085:X O *D sky130_fd_sc_hd__mux4_2
*CAP
1 *1087:A1 0.000345986
2 *1085:X 0.000345986
3 *1087:A1 *1085:A1 6.79574e-05
*RES
1 *1085:X *1087:A1 33.6572 
*END

*D_NET *496 0.00545665
*CONN
*I *1087:A0 I *D sky130_fd_sc_hd__mux2i_1
*I *1086:X O *D sky130_fd_sc_hd__mux4_2
*CAP
1 *1087:A0 0.00183412
2 *1086:X 0.000451816
3 *496:12 0.00228593
4 *1087:A0 *1086:A3 1.30977e-05
5 *1087:A0 *1597:CLK 9.93562e-05
6 *1087:A0 *880:255 0.000149264
7 *1087:A0 *880:275 1.4418e-05
8 *496:12 *1086:A0 0.000608652
9 *496:12 *1086:A1 0
*RES
1 *1086:X *496:12 32.4344 
2 *496:12 *1087:A0 36.3283 
*END

*D_NET *497 0.0218523
*CONN
*I *1089:A2 I *D sky130_fd_sc_hd__a21oi_1
*I *1087:Y O *D sky130_fd_sc_hd__mux2i_1
*CAP
1 *1089:A2 0
2 *1087:Y 0.00919928
3 *497:18 0.00919928
4 *497:18 *1085:A1 2.02035e-05
5 *497:18 *1518:DE 0.0029836
6 *497:18 *1614:DE 2.8813e-05
7 *497:18 *2294:A 0
8 *497:18 *856:32 4.46199e-05
9 *497:18 *863:73 0.000290904
10 *497:18 *865:67 8.5564e-05
11 *497:18 *896:16 0
12 *497:18 *896:45 0
13 *427:64 *497:18 0
*RES
1 *1087:Y *497:18 49.4621 
2 *497:18 *1089:A2 9.24915 
*END

*D_NET *498 0.00223657
*CONN
*I *1089:B1 I *D sky130_fd_sc_hd__a21oi_1
*I *1088:Y O *D sky130_fd_sc_hd__o21ai_0
*CAP
1 *1089:B1 0.000565915
2 *1088:Y 0.000565915
3 *1089:B1 *1451:CLK 0.000111722
4 data_out[30] *1089:B1 0.000273916
5 *1088:B1 *1089:B1 6.49003e-05
6 *1158:A1 *1089:B1 0.000122497
7 *1158:A2 *1089:B1 0.000114271
8 *1158:B1 *1089:B1 9.18809e-05
9 *1451:D *1089:B1 0.000176469
10 *81:140 *1089:B1 2.62217e-05
11 *430:392 *1089:B1 0.000122858
*RES
1 *1088:Y *1089:B1 45.4432 
*END

*D_NET *499 0.0020781
*CONN
*I *1092:A1 I *D sky130_fd_sc_hd__mux2i_1
*I *1090:X O *D sky130_fd_sc_hd__mux4_2
*CAP
1 *1092:A1 0.000795095
2 *1090:X 0.000795095
3 *1092:A1 *1090:A0 0.00035041
4 *1092:A1 *1090:A1 0
5 *1092:A1 *1090:S1 0
6 *1092:A1 *1092:A0 7.24449e-05
7 *1092:A1 *1549:DE 0
8 *1092:A1 *880:207 6.50586e-05
9 *1092:A1 *881:187 0
10 *1092:A1 *905:72 0
11 *1645:D *1092:A1 0
*RES
1 *1090:X *1092:A1 48.3276 
*END

*D_NET *500 0.00189496
*CONN
*I *1092:A0 I *D sky130_fd_sc_hd__mux2i_1
*I *1091:X O *D sky130_fd_sc_hd__mux4_2
*CAP
1 *1092:A0 0.000547641
2 *1091:X 0.000547641
3 *1092:A0 *1091:A0 0
4 *1092:A0 *1091:A1 0
5 *1092:A0 *877:262 0.000324137
6 *1092:A0 *880:207 0.0003773
7 *1092:A0 *881:204 2.57986e-05
8 *1092:A0 *905:72 0
9 *1092:A1 *1092:A0 7.24449e-05
*RES
1 *1091:X *1092:A0 43.9314 
*END

*D_NET *501 0.0222526
*CONN
*I *1094:A2 I *D sky130_fd_sc_hd__a21oi_1
*I *1092:Y O *D sky130_fd_sc_hd__mux2i_1
*CAP
1 *1094:A2 0.000309089
2 *1092:Y 0.00842922
3 *501:14 0.00873831
4 *1094:A2 *1124:B1 0
5 *1094:A2 *857:414 0
6 *501:14 *1549:DE 0.000200152
7 *501:14 *2298:A 0.000509681
8 *501:14 *859:39 0
9 *501:14 *877:88 0.00228902
10 *501:14 *877:105 0.0016471
11 *501:14 *881:145 0.000104638
12 *501:14 *904:68 0
13 *1083:A2 *1094:A2 0
14 *1083:B1 *1094:A2 7.08723e-06
15 *1123:A1 *1094:A2 0
16 *1438:D *1094:A2 1.82696e-05
17 *430:667 *1094:A2 0
18 *433:14 *501:14 0
*RES
1 *1092:Y *501:14 43.3268 
2 *501:14 *1094:A2 21.187 
*END

*D_NET *502 0.000483949
*CONN
*I *1094:B1 I *D sky130_fd_sc_hd__a21oi_1
*I *1093:Y O *D sky130_fd_sc_hd__o21ai_0
*CAP
1 *1094:B1 0.000101459
2 *1093:Y 0.000101459
3 *1093:A2 *1094:B1 6.08467e-05
4 *430:656 *1094:B1 0.000220183
*RES
1 *1093:Y *1094:B1 21.4401 
*END

*D_NET *503 0.00353423
*CONN
*I *1097:A1 I *D sky130_fd_sc_hd__mux2i_1
*I *1095:X O *D sky130_fd_sc_hd__mux4_2
*CAP
1 *1097:A1 0
2 *1095:X 0.00155847
3 *503:18 0.00155847
4 *503:18 *858:197 5.49413e-05
5 *1095:S1 *503:18 0.00015607
6 *1663:D *503:18 6.93171e-05
7 *68:239 *503:18 0.00013697
*RES
1 *1095:X *503:18 42.927 
2 *503:18 *1097:A1 9.24915 
*END

*D_NET *504 0.0010658
*CONN
*I *1097:A0 I *D sky130_fd_sc_hd__mux2i_1
*I *1096:X O *D sky130_fd_sc_hd__mux4_2
*CAP
1 *1097:A0 0.000255381
2 *1096:X 0.000255381
3 *1097:A0 *505:16 6.27718e-05
4 *1097:A0 *858:197 0.000309075
5 *1097:A0 *884:31 0
6 *1375:B *1097:A0 0.000150013
7 *1663:D *1097:A0 3.31745e-05
*RES
1 *1096:X *1097:A0 36.2023 
*END

*D_NET *505 0.00394104
*CONN
*I *1099:A2 I *D sky130_fd_sc_hd__a21oi_1
*I *1097:Y O *D sky130_fd_sc_hd__mux2i_1
*CAP
1 *1099:A2 0.000509583
2 *1097:Y 0.000802048
3 *505:16 0.00131163
4 *505:16 *857:363 0.000332291
5 *1097:A0 *505:16 6.27718e-05
6 *1099:A1 *1099:A2 3.07159e-05
7 *1343:C *505:16 3.97027e-05
8 *1375:B *505:16 8.64123e-05
9 *1663:D *505:16 0.000307799
10 *10:48 *505:16 0.000321846
11 *419:61 *505:16 0.000115866
12 *419:71 *505:16 2.03735e-05
13 *427:52 *505:16 0
*RES
1 *1097:Y *505:16 41.2335 
2 *505:16 *1099:A2 21.0646 
*END

*D_NET *506 0.000433984
*CONN
*I *1099:B1 I *D sky130_fd_sc_hd__a21oi_1
*I *1098:Y O *D sky130_fd_sc_hd__o21ai_0
*CAP
1 *1099:B1 0.000101725
2 *1098:Y 0.000101725
3 *1098:A2 *1099:B1 1.19721e-05
4 *430:358 *1099:B1 0.000218562
*RES
1 *1098:Y *1099:B1 21.4401 
*END

*D_NET *507 0.00204836
*CONN
*I *1102:A1 I *D sky130_fd_sc_hd__mux2i_1
*I *1100:X O *D sky130_fd_sc_hd__mux4_2
*CAP
1 *1102:A1 0.000587373
2 *1100:X 0.000587373
3 *1102:A1 *1100:A0 2.9199e-05
4 *1102:A1 *1100:S1 0
5 *1102:A1 *1102:A0 0.000147742
6 *1102:A1 *1102:S 3.20069e-06
7 *1102:A1 *1317:C 0.000352644
8 *1102:A1 *858:337 0
9 *1102:A1 *875:397 0.000268575
10 *1102:A1 *880:141 7.22498e-05
11 *996:A *1102:A1 0
*RES
1 *1100:X *1102:A1 45.2815 
*END

*D_NET *508 0.000680594
*CONN
*I *1102:A0 I *D sky130_fd_sc_hd__mux2i_1
*I *1101:X O *D sky130_fd_sc_hd__mux4_2
*CAP
1 *1102:A0 0.00021375
2 *1101:X 0.00021375
3 *1102:A0 *1100:S1 0
4 *1102:A0 *1102:S 1.14755e-05
5 *1102:A0 *509:18 2.47019e-05
6 *1102:A0 *880:141 2.51195e-05
7 *1102:A0 *880:149 1.39721e-05
8 *1102:A0 *882:161 3.00829e-05
9 *1102:A1 *1102:A0 0.000147742
*RES
1 *1101:X *1102:A0 33.2714 
*END

*D_NET *509 0.0138173
*CONN
*I *1104:A2 I *D sky130_fd_sc_hd__a21oi_1
*I *1102:Y O *D sky130_fd_sc_hd__mux2i_1
*CAP
1 *1104:A2 0
2 *1102:Y 0.0053589
3 *509:18 0.0053589
4 *509:18 *1101:A0 2.83365e-05
5 *509:18 *1101:A1 5.86637e-05
6 *509:18 *1129:A2 0
7 *509:18 *557:18 0.000588356
8 *509:18 *856:30 2.01653e-05
9 *509:18 *856:118 5.41722e-05
10 *509:18 *860:42 0.00131065
11 *509:18 *880:149 0
12 *509:18 *881:111 0
13 *1102:A0 *509:18 2.47019e-05
14 *26:15 *509:18 0.00101441
*RES
1 *1102:Y *509:18 45.6488 
2 *509:18 *1104:A2 9.24915 
*END

*D_NET *510 0.00129441
*CONN
*I *1104:B1 I *D sky130_fd_sc_hd__a21oi_1
*I *1103:Y O *D sky130_fd_sc_hd__o21ai_0
*CAP
1 *1104:B1 0.00039513
2 *1103:Y 0.00039513
3 *1103:A1 *1104:B1 0
4 *1103:B1 *1104:B1 6.92705e-05
5 *1440:D *1104:B1 0.000415258
6 *81:80 *1104:B1 0
7 *430:32 *1104:B1 1.9622e-05
*RES
1 *1103:Y *1104:B1 36.599 
*END

*D_NET *511 0.00144412
*CONN
*I *1107:A1 I *D sky130_fd_sc_hd__mux2i_1
*I *1105:X O *D sky130_fd_sc_hd__mux4_2
*CAP
1 *1107:A1 0.000430237
2 *1105:X 0.000430237
3 *1107:A1 *1105:A1 2.16355e-05
4 *1107:A1 *1105:A3 9.75356e-05
5 *1107:A1 *1107:S 0.000166542
6 *1107:A1 *1656:CLK 5.7825e-05
7 *1107:A1 *880:53 5.51903e-05
8 *1107:A1 *880:55 0.000184916
9 *15:17 *1107:A1 0
*RES
1 *1105:X *1107:A1 39.9238 
*END

*D_NET *512 0.0025674
*CONN
*I *1107:A0 I *D sky130_fd_sc_hd__mux2i_1
*I *1106:X O *D sky130_fd_sc_hd__mux4_2
*CAP
1 *1107:A0 0
2 *1106:X 0.000637535
3 *512:20 0.000637535
4 *512:20 *1106:A0 0.000105779
5 *512:20 *1109:A2 0.000134027
6 *512:20 *893:47 5.05252e-05
7 *512:20 *893:60 0.000334973
8 *512:20 *904:147 0.000360145
9 *1377:D *512:20 0.000148643
10 *1473:D *512:20 7.37164e-05
11 *1505:D *512:20 6.80097e-05
12 *68:308 *512:20 1.65078e-05
13 *68:318 *512:20 0
*RES
1 *1106:X *512:20 44.9653 
2 *512:20 *1107:A0 9.24915 
*END

*D_NET *513 0.00821232
*CONN
*I *1109:A2 I *D sky130_fd_sc_hd__a21oi_1
*I *1107:Y O *D sky130_fd_sc_hd__mux2i_1
*CAP
1 *1109:A2 0.00399957
2 *1107:Y 0.00399957
3 *1109:A2 *865:199 0
4 *1079:A2 *1109:A2 0
5 *1473:D *1109:A2 5.54049e-05
6 *430:406 *1109:A2 2.37478e-05
7 *469:18 *1109:A2 0
8 *512:20 *1109:A2 0.000134027
*RES
1 *1107:Y *1109:A2 46.451 
*END

*D_NET *514 0.00219697
*CONN
*I *1109:B1 I *D sky130_fd_sc_hd__a21oi_1
*I *1108:Y O *D sky130_fd_sc_hd__o21ai_0
*CAP
1 *1109:B1 0.000286993
2 *1108:Y 0.000286993
3 *1108:B1 *1109:B1 2.65667e-05
4 *1441:D *1109:B1 0.000551829
5 *45:8 *1109:B1 0.00104459
*RES
1 *1108:Y *1109:B1 32.5322 
*END

*D_NET *515 0.00114597
*CONN
*I *1112:A1 I *D sky130_fd_sc_hd__mux2i_1
*I *1110:X O *D sky130_fd_sc_hd__mux4_2
*CAP
1 *1112:A1 0.000297421
2 *1110:X 0.000297421
3 *1112:A1 *1110:S0 4.66568e-05
4 *1112:A1 *1112:A0 0.000364307
5 *1112:A1 *1112:S 1.65872e-05
6 *1112:A1 *870:98 0
7 *1112:A1 *880:425 0.000123582
*RES
1 *1110:X *1112:A1 35.6292 
*END

*D_NET *516 0.00447051
*CONN
*I *1112:A0 I *D sky130_fd_sc_hd__mux2i_1
*I *1111:X O *D sky130_fd_sc_hd__mux4_2
*CAP
1 *1112:A0 0.000247009
2 *1111:X 0.00132853
3 *516:14 0.00157554
4 *1112:A0 *1072:S 0.000112837
5 *1112:A0 *1112:S 0.000114584
6 *1112:A0 *870:98 0
7 *1112:A0 *880:425 5.1493e-06
8 *516:14 *1111:A0 0.000283108
9 *516:14 *1111:A1 0
10 *516:14 *1111:A2 6.65668e-05
11 *516:14 *864:75 0.000307806
12 *1112:A1 *1112:A0 0.000364307
13 *465:24 *1112:A0 6.50727e-05
*RES
1 *1111:X *516:14 49.2413 
2 *516:14 *1112:A0 26.0719 
*END

*D_NET *517 0.0248683
*CONN
*I *1114:A2 I *D sky130_fd_sc_hd__a21oi_1
*I *1112:Y O *D sky130_fd_sc_hd__mux2i_1
*CAP
1 *1114:A2 0.0103495
2 *1112:Y 0.000433661
3 *517:10 0.0107832
4 *1114:A2 *1065:S1 0.000149977
5 *1114:A2 *1337:C 0
6 *1114:A2 *2288:A 4.03405e-05
7 *1114:A2 *521:22 0
8 *1114:A2 *856:30 0
9 *1114:A2 *858:462 0.00067927
10 *1114:A2 *898:25 0.000255637
11 *1114:A2 *905:36 7.29209e-06
12 *517:10 *1070:A1 0.000539325
13 *517:10 *1110:A0 4.24742e-05
14 *517:10 *870:98 0
15 *517:10 *878:174 0.000827093
16 *962:B *1114:A2 0.00010238
17 *1069:A2 *1114:A2 0
18 *4:5 *1114:A2 0
19 *5:76 *517:10 0.000278287
20 *10:11 *1114:A2 0
21 *12:17 *1114:A2 0
22 *123:62 *1114:A2 6.6834e-05
23 *418:459 *1114:A2 0.000286885
24 *430:388 *1114:A2 1.82696e-05
25 *485:20 *517:10 7.86825e-06
*RES
1 *1112:Y *517:10 37.0134 
2 *517:10 *1114:A2 44.0559 
*END

*D_NET *518 0.00157817
*CONN
*I *1114:B1 I *D sky130_fd_sc_hd__a21oi_1
*I *1113:Y O *D sky130_fd_sc_hd__o21ai_0
*CAP
1 *1114:B1 0.000713865
2 *1113:Y 0.000713865
3 *1114:B1 *2312:A 2.70404e-05
4 *1114:B1 *900:10 4.58077e-05
5 *1113:B1 *1114:B1 2.16355e-05
6 *430:377 *1114:B1 5.59526e-05
*RES
1 *1113:Y *1114:B1 32.0499 
*END

*D_NET *519 0.00111171
*CONN
*I *1117:A1 I *D sky130_fd_sc_hd__mux2i_1
*I *1115:X O *D sky130_fd_sc_hd__mux4_2
*CAP
1 *1117:A1 0.000210783
2 *1115:X 0.000210783
3 *1117:A1 *1115:A1 0.000213725
4 *1117:A1 *1117:S 0
5 *1117:A1 *874:295 9.04224e-05
6 *1117:A1 *890:197 0.000377369
7 *25:47 *1117:A1 8.62625e-06
*RES
1 *1115:X *1117:A1 35.0451 
*END

*D_NET *520 0.00332819
*CONN
*I *1117:A0 I *D sky130_fd_sc_hd__mux2i_1
*I *1116:X O *D sky130_fd_sc_hd__mux4_2
*CAP
1 *1117:A0 9.04459e-05
2 *1116:X 0.00104025
3 *520:14 0.0011307
4 *1117:A0 *890:197 0.000264586
5 *520:14 *1115:A1 0.00015321
6 *520:14 *1116:A1 0.000145447
7 *520:14 *1117:S 9.11135e-05
8 *520:14 *874:295 0
9 *520:14 *874:320 2.83365e-05
10 *520:14 *881:111 6.53794e-05
11 *520:14 *881:113 0.000147447
12 *520:14 *881:115 0.000164524
13 *520:14 *881:117 3.67528e-06
14 *520:14 *890:170 0
15 *520:14 *890:197 0
16 *1305:A *520:14 0
17 *4:27 *520:14 3.072e-06
18 *4:36 *520:14 0
*RES
1 *1116:X *520:14 47.1345 
2 *520:14 *1117:A0 12.191 
*END

*D_NET *521 0.0169233
*CONN
*I *1119:A2 I *D sky130_fd_sc_hd__a21oi_1
*I *1117:Y O *D sky130_fd_sc_hd__mux2i_1
*CAP
1 *1119:A2 0
2 *1117:Y 0.00476609
3 *521:22 0.00476609
4 *521:22 *1115:A2 4.19401e-06
5 *521:22 *2288:A 0.000108408
6 *521:22 *881:111 1.91246e-05
7 *521:22 *898:25 0.000216695
8 *1099:A1 *521:22 6.48293e-05
9 *1114:A2 *521:22 0
10 *1443:D *521:22 0
11 *81:104 *521:22 0
12 *123:62 *521:22 0
13 *485:20 *521:22 0.00697783
*RES
1 *1117:Y *521:22 43.6727 
2 *521:22 *1119:A2 9.24915 
*END

*D_NET *522 0.00209258
*CONN
*I *1119:B1 I *D sky130_fd_sc_hd__a21oi_1
*I *1118:Y O *D sky130_fd_sc_hd__o21ai_0
*CAP
1 *1119:B1 0.000820479
2 *1118:Y 0.000820479
3 *1119:B1 *1434:CLK 4.02438e-05
4 *1073:A1 *1119:B1 0
5 *1074:B1 *1119:B1 6.3657e-05
6 *1118:B1 *1119:B1 5.0715e-05
7 *1434:D *1119:B1 0.000108483
8 *1443:D *1119:B1 0.000122083
9 *430:61 *1119:B1 6.64392e-05
*RES
1 *1118:Y *1119:B1 42.9728 
*END

*D_NET *523 0.00167512
*CONN
*I *1122:A1 I *D sky130_fd_sc_hd__mux2i_1
*I *1120:X O *D sky130_fd_sc_hd__mux4_2
*CAP
1 *1122:A1 0.000428236
2 *1120:X 0.000428236
3 *1122:A1 *1120:A0 2.99929e-05
4 *1122:A1 *1120:A1 0
5 *1122:A1 *868:96 0.000649065
6 *1122:A1 *880:59 3.88213e-05
7 *424:297 *1122:A1 0.000100769
*RES
1 *1120:X *1122:A1 40.8614 
*END

*D_NET *524 0.00252485
*CONN
*I *1122:A0 I *D sky130_fd_sc_hd__mux2i_1
*I *1121:X O *D sky130_fd_sc_hd__mux4_2
*CAP
1 *1122:A0 0
2 *1121:X 0.000914089
3 *524:16 0.000914089
4 *524:16 *1121:A0 0.000630392
5 *524:16 *1121:A1 0
6 *524:16 *868:96 3.00829e-05
7 *1120:S1 *524:16 0
8 *13:13 *524:16 0
9 *69:232 *524:16 1.03403e-05
10 *424:297 *524:16 2.58616e-05
*RES
1 *1121:X *524:16 42.454 
2 *524:16 *1122:A0 9.24915 
*END

*D_NET *525 0.00977302
*CONN
*I *1124:A2 I *D sky130_fd_sc_hd__a21oi_1
*I *1122:Y O *D sky130_fd_sc_hd__mux2i_1
*CAP
1 *1124:A2 0
2 *1122:Y 0.00366096
3 *525:18 0.00366096
4 *525:18 *1380:DE 0.000137573
5 *525:18 *894:98 0.000165394
6 *525:18 *903:91 0.000531211
7 *525:18 *903:106 9.96839e-05
8 *963:B *525:18 0
9 *1084:A2 *525:18 0.000110257
10 *1120:S0 *525:18 0.000131776
11 *1120:S1 *525:18 0
12 *457:16 *525:18 0.0012752
13 *458:12 *525:18 0
*RES
1 *1122:Y *525:18 41.857 
2 *525:18 *1124:A2 9.24915 
*END

*D_NET *526 0.00284462
*CONN
*I *1124:B1 I *D sky130_fd_sc_hd__a21oi_1
*I *1123:Y O *D sky130_fd_sc_hd__o21ai_0
*CAP
1 *1124:B1 0.000463305
2 *1123:Y 0.000463305
3 *1083:B1 *1124:B1 8.62321e-06
4 *1084:A2 *1124:B1 0.000111722
5 *1094:A2 *1124:B1 0
6 *1123:A1 *1124:B1 0.000468807
7 *1427:D *1124:B1 0.000221185
8 *48:10 *1124:B1 0.000160482
9 *430:690 *1124:B1 4.81015e-05
10 *458:12 *1124:B1 0.000899085
11 *494:14 *1124:B1 0
*RES
1 *1123:Y *1124:B1 48.0489 
*END

*D_NET *527 0.00193281
*CONN
*I *1127:A1 I *D sky130_fd_sc_hd__mux2i_1
*I *1125:X O *D sky130_fd_sc_hd__mux4_2
*CAP
1 *1127:A1 0.000797889
2 *1125:X 0.000797889
3 *1127:A1 *1125:A0 0
4 *1127:A1 *1125:A2 7.84835e-05
5 *1557:DE *1127:A1 0.000147282
6 *325:14 *1127:A1 0.00011127
*RES
1 *1125:X *1127:A1 44.7731 
*END

*D_NET *528 0.00131581
*CONN
*I *1127:A0 I *D sky130_fd_sc_hd__mux2i_1
*I *1126:X O *D sky130_fd_sc_hd__mux4_2
*CAP
1 *1127:A0 0.000245613
2 *1126:X 0.000245613
3 *1127:A0 *529:10 0.000398425
4 *1127:A0 *876:125 1.74551e-05
5 *1127:A0 *881:63 6.45581e-05
6 *1127:A0 *881:86 3.82228e-05
7 *1127:A0 *889:68 0.000305918
*RES
1 *1126:X *1127:A0 37.531 
*END

*D_NET *529 0.0226511
*CONN
*I *1129:A2 I *D sky130_fd_sc_hd__a21oi_1
*I *1127:Y O *D sky130_fd_sc_hd__mux2i_1
*CAP
1 *1129:A2 0.00687787
2 *1127:Y 0.000413243
3 *529:10 0.00729111
4 *1129:A2 *857:43 0.000472525
5 *1129:A2 *857:258 0.00277426
6 *1129:A2 *857:275 0.00232381
7 *1129:A2 *860:42 0
8 *1129:A2 *903:186 0
9 *529:10 *876:125 0.000296728
10 *529:10 *876:131 1.07549e-05
11 *529:10 *889:57 8.53833e-05
12 *529:10 *889:68 0.000218991
13 *1127:A0 *529:10 0.000398425
14 *1196:A *529:10 0.000394025
15 *30:17 *1129:A2 0.000790303
16 *30:62 *1129:A2 0.00030365
17 *509:18 *1129:A2 0
*RES
1 *1127:Y *529:10 36.1829 
2 *529:10 *1129:A2 36.822 
*END

*D_NET *530 0.000484965
*CONN
*I *1129:B1 I *D sky130_fd_sc_hd__a21oi_1
*I *1128:Y O *D sky130_fd_sc_hd__o21ai_0
*CAP
1 *1129:B1 9.98544e-05
2 *1128:Y 9.98544e-05
3 *1129:A1 *1129:B1 0.00011818
4 *430:40 *1129:B1 0.000167076
*RES
1 *1128:Y *1129:B1 21.4401 
*END

*D_NET *531 0.00121094
*CONN
*I *1132:A1 I *D sky130_fd_sc_hd__mux2i_1
*I *1130:X O *D sky130_fd_sc_hd__mux4_2
*CAP
1 *1132:A1 0.000350136
2 *1130:X 0.000350136
3 *1132:A1 *1025:S1 1.10813e-05
4 *1132:A1 *1130:A1 3.23107e-05
5 *1132:A1 *1131:S0 0.000126184
6 *1132:A1 *1132:S 0
7 *1132:A1 *533:18 0.000135309
8 *1132:A1 *883:95 0.000205783
9 *124:226 *1132:A1 0
*RES
1 *1130:X *1132:A1 37.3084 
*END

*D_NET *532 0.00269644
*CONN
*I *1132:A0 I *D sky130_fd_sc_hd__mux2i_1
*I *1131:X O *D sky130_fd_sc_hd__mux4_2
*CAP
1 *1132:A0 0
2 *1131:X 0.0011147
3 *532:16 0.0011147
4 *532:16 *1130:A0 8.95604e-05
5 *532:16 *1131:S0 0
6 *532:16 *878:129 4.07343e-05
7 *532:16 *888:161 8.79886e-06
8 *532:16 *888:205 0.00032795
*RES
1 *1131:X *532:16 44.2628 
2 *532:16 *1132:A0 9.24915 
*END

*D_NET *533 0.0190608
*CONN
*I *1134:A2 I *D sky130_fd_sc_hd__a21oi_1
*I *1132:Y O *D sky130_fd_sc_hd__mux2i_1
*CAP
1 *1134:A2 0
2 *1132:Y 0.00836407
3 *533:18 0.00836407
4 *533:18 *537:16 0.000939175
5 *533:18 *858:379 9.03549e-05
6 data_out[26] *533:18 0
7 *1029:A1 *533:18 4.62112e-05
8 *1132:A1 *533:18 0.000135309
9 *121:106 *533:18 6.54439e-05
10 *121:176 *533:18 9.84017e-05
11 *124:46 *533:18 0.00052244
12 *124:226 *533:18 0
13 *124:232 *533:18 3.52767e-05
14 *423:352 *533:18 0.000391434
15 *430:321 *533:18 8.62625e-06
*RES
1 *1132:Y *533:18 48.6317 
2 *533:18 *1134:A2 9.24915 
*END

*D_NET *534 0.00210712
*CONN
*I *1134:B1 I *D sky130_fd_sc_hd__a21oi_1
*I *1133:Y O *D sky130_fd_sc_hd__o21ai_0
*CAP
1 *1134:B1 0.000710966
2 *1133:Y 0.000710966
3 *1134:B1 *1154:B1 8.96874e-05
4 *1133:A2 *1134:B1 0.000213725
5 *1138:A1 *1134:B1 0
6 *1447:D *1134:B1 0
7 *50:14 *1134:B1 4.47522e-05
8 *54:14 *1134:B1 7.86825e-06
9 *81:19 *1134:B1 0.000261545
10 *81:23 *1134:B1 1.36691e-05
11 *430:321 *1134:B1 5.39463e-05
*RES
1 *1133:Y *1134:B1 47.0818 
*END

*D_NET *535 0.000868689
*CONN
*I *1137:A1 I *D sky130_fd_sc_hd__mux2i_1
*I *1135:X O *D sky130_fd_sc_hd__mux4_2
*CAP
1 *1137:A1 0.00040203
2 *1135:X 0.00040203
3 *1137:A1 *1137:A0 6.46289e-05
*RES
1 *1135:X *1137:A1 36.1543 
*END

*D_NET *536 0.00177068
*CONN
*I *1137:A0 I *D sky130_fd_sc_hd__mux2i_1
*I *1136:X O *D sky130_fd_sc_hd__mux4_2
*CAP
1 *1137:A0 0.00068403
2 *1136:X 0.00068403
3 *1137:A0 *1135:A1 9.54375e-05
4 *1137:A0 *1136:A0 6.96979e-05
5 *1137:A0 *1136:A1 1.41307e-05
6 *1135:S1 *1137:A0 0.000158727
7 *1137:A1 *1137:A0 6.46289e-05
*RES
1 *1136:X *1137:A0 46.1151 
*END

*D_NET *537 0.0390294
*CONN
*I *1139:A2 I *D sky130_fd_sc_hd__a21oi_1
*I *1137:Y O *D sky130_fd_sc_hd__mux2i_1
*CAP
1 *1139:A2 1.4129e-05
2 *1137:Y 0.00589435
3 *537:16 0.00590848
4 *537:16 *1025:S1 3.27241e-05
5 *537:16 *1135:A2 5.97738e-05
6 *537:16 *1137:S 0
7 *537:16 *1154:A2 0
8 *537:16 *1383:DE 3.79622e-05
9 *537:16 *858:379 0.00166681
10 *537:16 *858:402 0.000320261
11 *537:16 *861:99 9.51287e-05
12 *537:16 *880:362 0.000436651
13 *537:16 *902:64 0.000110257
14 *537:16 *902:108 0.00012875
15 *1135:S1 *537:16 5.81507e-05
16 *1511:DE *537:16 3.77975e-05
17 *19:15 *537:16 0.00128081
18 *121:176 *537:16 4.95352e-05
19 *124:46 *537:16 0.00285351
20 *423:352 *537:16 0.00196905
21 *430:311 *1139:A2 1.91246e-05
22 *449:14 *537:16 0.0171169
23 *533:18 *537:16 0.000939175
*RES
1 *1137:Y *537:16 48.4102 
2 *537:16 *1139:A2 17.4965 
*END

*D_NET *538 0.00143425
*CONN
*I *1139:B1 I *D sky130_fd_sc_hd__a21oi_1
*I *1138:Y O *D sky130_fd_sc_hd__o21ai_0
*CAP
1 *1139:B1 0.000490035
2 *1138:Y 0.000490035
3 *1139:B1 *931:CLK 8.30019e-05
4 *931:D *1139:B1 0.000109106
5 *81:425 *1139:B1 4.99006e-05
6 *81:431 *1139:B1 0
7 *430:311 *1139:B1 9.47944e-05
8 *430:321 *1139:B1 0.000117376
*RES
1 *1138:Y *1139:B1 40.5827 
*END

*D_NET *539 0.00128296
*CONN
*I *1142:A1 I *D sky130_fd_sc_hd__mux2i_1
*I *1140:X O *D sky130_fd_sc_hd__mux4_2
*CAP
1 *1142:A1 0.000414645
2 *1140:X 0.000414645
3 *1142:A1 *1278:B 0.000149181
4 *1142:A1 *541:10 0.000304493
*RES
1 *1140:X *1142:A1 38.0828 
*END

*D_NET *540 0.00035471
*CONN
*I *1142:A0 I *D sky130_fd_sc_hd__mux2i_1
*I *1141:X O *D sky130_fd_sc_hd__mux4_2
*CAP
1 *1142:A0 0.000115541
2 *1141:X 0.000115541
3 *1142:A0 *1141:A0 5.13058e-05
4 *1142:A0 *541:10 2.33831e-05
5 *1142:A0 *856:168 4.89392e-05
*RES
1 *1141:X *1142:A0 31.0235 
*END

*D_NET *541 0.0226126
*CONN
*I *1144:A2 I *D sky130_fd_sc_hd__a21oi_1
*I *1142:Y O *D sky130_fd_sc_hd__mux2i_1
*CAP
1 *1144:A2 0.000709525
2 *1142:Y 0.000165168
3 *541:16 0.00760449
4 *541:14 0.00803579
5 *541:10 0.00130599
6 *1144:A2 *1532:DE 0
7 *1144:A2 *1586:CLK 0.000233544
8 *1144:A2 *856:42 0
9 *1144:A2 *857:414 6.06688e-05
10 *1144:A2 *894:300 0.00015321
11 *541:14 *1352:B 0.000401119
12 *541:14 *1352:C 0.000304683
13 *541:14 *867:94 0.00115171
14 *541:16 *1036:A2 2.7631e-05
15 *541:16 *1121:A2 1.43298e-05
16 *541:16 *1352:C 0.00012816
17 *541:16 *1523:CLK 1.03403e-05
18 *541:16 *1523:DE 5.11487e-05
19 *541:16 *1540:CLK 1.1718e-05
20 *541:16 *1540:DE 3.37073e-06
21 *541:16 *874:140 7.78924e-05
22 *541:16 *894:145 6.08467e-05
23 *541:16 *894:197 0.00134891
24 *1142:A0 *541:10 2.33831e-05
25 *1142:A1 *541:10 0.000304493
26 *1170:A *1144:A2 0
27 *1234:A *1144:A2 8.13812e-06
28 *1523:D *541:16 5.34249e-06
29 *1540:D *541:16 5.49079e-06
30 *20:55 *541:14 0.000132219
31 *28:15 *1144:A2 0
32 *427:88 *1144:A2 0.000273277
*RES
1 *1142:Y *541:10 23.8184 
2 *541:10 *541:14 33.1918 
3 *541:14 *541:16 100.275 
4 *541:16 *1144:A2 38.3957 
*END

*D_NET *542 0.000464495
*CONN
*I *1144:B1 I *D sky130_fd_sc_hd__a21oi_1
*I *1143:Y O *D sky130_fd_sc_hd__o21ai_0
*CAP
1 *1144:B1 9.56023e-05
2 *1143:Y 9.56023e-05
3 *430:628 *1144:B1 0.00027329
*RES
1 *1143:Y *1144:B1 21.4401 
*END

*D_NET *543 0.000911784
*CONN
*I *1147:A1 I *D sky130_fd_sc_hd__mux2i_1
*I *1145:X O *D sky130_fd_sc_hd__mux4_2
*CAP
1 *1147:A1 0.000331179
2 *1145:X 0.000331179
3 *1147:A1 *1145:A1 0.000144695
4 *1147:A1 *1145:A3 0
5 *1147:A1 *544:14 0
6 *1147:A1 *545:16 0.000104731
7 *1286:A *1147:A1 0
*RES
1 *1145:X *1147:A1 34.2118 
*END

*D_NET *544 0.00459301
*CONN
*I *1147:A0 I *D sky130_fd_sc_hd__mux2i_1
*I *1146:X O *D sky130_fd_sc_hd__mux4_2
*CAP
1 *1147:A0 0
2 *1146:X 4.28882e-05
3 *544:14 0.00144722
4 *544:8 0.00149011
5 *544:8 *1146:A1 6.27782e-05
6 *544:14 *1145:A3 0
7 *544:14 *1146:A0 0.000996217
8 *544:14 *1146:A1 0
9 *544:14 *1147:S 2.02035e-05
10 *544:14 *1542:CLK 0
11 *965:B *544:14 3.94735e-05
12 *1147:A1 *544:14 0
13 *1190:B *544:14 0
14 *1286:A *544:14 1.40603e-05
15 *18:13 *544:14 4.46284e-06
16 *18:15 *544:14 9.75271e-05
17 *18:17 *544:14 0.000135242
18 *18:19 *544:14 5.29763e-05
19 *18:21 *544:14 0.000108083
20 *423:358 *544:14 8.17717e-05
*RES
1 *1146:X *544:8 14.4725 
2 *544:8 *544:14 47.2011 
3 *544:14 *1147:A0 9.24915 
*END

*D_NET *545 0.0174197
*CONN
*I *1149:A2 I *D sky130_fd_sc_hd__a21oi_1
*I *1147:Y O *D sky130_fd_sc_hd__mux2i_1
*CAP
1 *1149:A2 0
2 *1147:Y 0.00579553
3 *545:16 0.00579553
4 *545:16 *935:CLK 0
5 *545:16 *1145:A0 0
6 *545:16 *1145:A1 0
7 *545:16 *1145:A3 3.90891e-05
8 *545:16 *1145:S1 8.47436e-05
9 *545:16 *1154:A2 0.000502935
10 *545:16 *2291:A 1.34194e-05
11 *545:16 *881:27 0.00216477
12 *545:16 *881:40 0.00240974
13 *545:16 *881:55 0.000109882
14 empty *545:16 3.89902e-05
15 *1147:A1 *545:16 0.000104731
16 *127:114 *545:16 0.000360318
17 *430:287 *545:16 0
*RES
1 *1147:Y *545:16 45.8476 
2 *545:16 *1149:A2 13.7491 
*END

*D_NET *546 0.00100396
*CONN
*I *1149:B1 I *D sky130_fd_sc_hd__a21oi_1
*I *1148:Y O *D sky130_fd_sc_hd__o21ai_0
*CAP
1 *1149:B1 0.000163046
2 *1148:Y 0.000163046
3 empty *1149:B1 0
4 *1004:SLEEP *1149:B1 0
5 *1149:A1 *1149:B1 0.000277502
6 *1449:D *1149:B1 0.000123176
7 *81:48 *1149:B1 2.71397e-05
8 *430:214 *1149:B1 3.31733e-05
9 *430:225 *1149:B1 5.05252e-05
10 *430:270 *1149:B1 0.000166349
*RES
1 *1148:Y *1149:B1 34.7636 
*END

*D_NET *547 0.000676643
*CONN
*I *1152:A1 I *D sky130_fd_sc_hd__mux2i_1
*I *1150:X O *D sky130_fd_sc_hd__mux4_2
*CAP
1 *1152:A1 0.000230787
2 *1150:X 0.000230787
3 *1152:A1 *1150:A0 2.4707e-05
4 *1152:A1 *1152:A0 3.14978e-05
5 *1152:A1 *880:12 4.3116e-06
6 *1152:A1 *881:14 0
7 *1359:B *1152:A1 3.22146e-05
8 *423:315 *1152:A1 0.000122339
*RES
1 *1150:X *1152:A1 33.3757 
*END

*D_NET *548 0.00129078
*CONN
*I *1152:A0 I *D sky130_fd_sc_hd__mux2i_1
*I *1151:X O *D sky130_fd_sc_hd__mux4_2
*CAP
1 *1152:A0 0.000340439
2 *1151:X 0.000340439
3 *1152:A0 *1154:A2 0
4 *1152:A0 *876:6 0.000254493
5 *1152:A0 *880:14 6.64392e-05
6 *1152:A0 *880:21 0.000200955
7 *1152:A0 *881:14 0
8 *1152:A1 *1152:A0 3.14978e-05
9 *423:315 *1152:A0 5.65165e-05
*RES
1 *1151:X *1152:A0 39.337 
*END

*D_NET *549 0.00900883
*CONN
*I *1154:A2 I *D sky130_fd_sc_hd__a21oi_1
*I *1152:Y O *D sky130_fd_sc_hd__mux2i_1
*CAP
1 *1154:A2 0.00422395
2 *1152:Y 0.00422395
3 *1154:A2 *881:14 5.54049e-05
4 *1154:A2 *881:27 2.58954e-06
5 empty *1154:A2 0
6 *1138:A1 *1154:A2 0
7 *1152:A0 *1154:A2 0
8 *449:14 *1154:A2 0
9 *537:16 *1154:A2 0
10 *545:16 *1154:A2 0.000502935
*RES
1 *1152:Y *1154:A2 47.5984 
*END

*D_NET *550 0.0022899
*CONN
*I *1154:B1 I *D sky130_fd_sc_hd__a21oi_1
*I *1153:Y O *D sky130_fd_sc_hd__o21ai_0
*CAP
1 *1154:B1 0.000669716
2 *1153:Y 0.000669716
3 *1133:A2 *1154:B1 7.14746e-05
4 *1134:B1 *1154:B1 8.96874e-05
5 *1138:A1 *1154:B1 0.000302748
6 *1153:A2 *1154:B1 0.000377259
7 *1450:D *1154:B1 0
8 *50:14 *1154:B1 9.26343e-05
9 *54:14 *1154:B1 1.66626e-05
*RES
1 *1153:Y *1154:B1 44.3523 
*END

*D_NET *551 0.00384554
*CONN
*I *1157:A1 I *D sky130_fd_sc_hd__mux2i_1
*I *1155:X O *D sky130_fd_sc_hd__mux4_2
*CAP
1 *1157:A1 0
2 *1155:X 0.00168919
3 *551:14 0.00168919
4 *551:14 *1155:A0 9.34869e-05
5 *551:14 *1155:A1 6.63824e-06
6 *551:14 *1157:A0 1.19721e-05
7 *551:14 *857:59 0.000111326
8 *551:14 *877:54 0
9 *551:14 *904:36 1.69178e-06
10 *551:14 *904:54 0.000232523
11 *1483:D *551:14 9.52181e-06
*RES
1 *1155:X *551:14 45.2284 
2 *551:14 *1157:A1 9.24915 
*END

*D_NET *552 0.0011419
*CONN
*I *1157:A0 I *D sky130_fd_sc_hd__mux2i_1
*I *1156:X O *D sky130_fd_sc_hd__mux4_2
*CAP
1 *1157:A0 0.000218409
2 *1156:X 0.000218409
3 *1157:A0 *1419:CLK 0.000122844
4 *1157:A0 *553:14 2.65667e-05
5 *1157:A0 *858:197 0.000175848
6 *1157:A0 *858:213 0
7 *1157:A0 *904:54 0.000362178
8 *1156:S0 *1157:A0 5.66868e-06
9 *551:14 *1157:A0 1.19721e-05
*RES
1 *1156:X *1157:A0 35.87 
*END

*D_NET *553 0.00309894
*CONN
*I *1159:A2 I *D sky130_fd_sc_hd__a21oi_1
*I *1157:Y O *D sky130_fd_sc_hd__mux2i_1
*CAP
1 *1159:A2 0
2 *1157:Y 0.00104592
3 *553:14 0.00104592
4 *553:14 *1156:A2 0.000171273
5 *553:14 *1547:CLK 0.000269531
6 *553:14 *1643:CLK 0.000152878
7 *553:14 *884:123 0.000111722
8 *1157:A0 *553:14 2.65667e-05
9 *1643:D *553:14 0.000189891
10 *1643:DE *553:14 8.52404e-05
11 *69:57 *553:14 0
12 *128:46 *553:14 0
*RES
1 *1157:Y *553:14 46.3429 
2 *553:14 *1159:A2 9.24915 
*END

*D_NET *554 0.000436513
*CONN
*I *1159:B1 I *D sky130_fd_sc_hd__a21oi_1
*I *1158:Y O *D sky130_fd_sc_hd__o21ai_0
*CAP
1 *1159:B1 0.000130916
2 *1158:Y 0.000130916
3 *1158:B1 *1159:B1 2.65667e-05
4 *430:394 *1159:B1 0.000137389
5 *430:396 *1159:B1 1.07248e-05
*RES
1 *1158:Y *1159:B1 30.8842 
*END

*D_NET *555 0.00274892
*CONN
*I *1162:A1 I *D sky130_fd_sc_hd__mux2i_1
*I *1160:X O *D sky130_fd_sc_hd__mux4_2
*CAP
1 *1162:A1 0.000769541
2 *1160:X 0.000769541
3 *1162:A1 *1160:A0 5.2737e-05
4 *1162:A1 *1196:C 7.93303e-06
5 *1162:A1 *880:149 0.000113068
6 *1162:A1 *880:156 0.000539163
7 *1162:A1 *880:173 0.000299994
8 *1196:A *1162:A1 6.08467e-05
9 *1196:B *1162:A1 0.000136092
*RES
1 *1160:X *1162:A1 49.3496 
*END

*D_NET *556 0.00100174
*CONN
*I *1162:A0 I *D sky130_fd_sc_hd__mux2i_1
*I *1161:X O *D sky130_fd_sc_hd__mux4_2
*CAP
1 *1162:A0 0.000390537
2 *1161:X 0.000390537
3 *1162:A0 *1161:A0 0.00022067
4 *1162:A0 *1161:S1 0
5 *423:368 *1162:A0 0
*RES
1 *1161:X *1162:A0 35.87 
*END

*D_NET *557 0.0205702
*CONN
*I *1164:A2 I *D sky130_fd_sc_hd__a21oi_1
*I *1162:Y O *D sky130_fd_sc_hd__mux2i_1
*CAP
1 *1164:A2 0
2 *1162:Y 0.00631657
3 *557:18 0.00631657
4 *557:18 *1160:S0 4.75721e-06
5 *557:18 *2289:A 6.90255e-05
6 *557:18 *856:30 4.70612e-05
7 *557:18 *856:118 0.000325792
8 *557:18 *856:294 0
9 *557:18 *860:34 0
10 *557:18 *860:42 9.71889e-05
11 *557:18 *881:92 0
12 *26:15 *557:18 0.00526881
13 *423:368 *557:18 0
14 *445:18 *557:18 0.00153605
15 *509:18 *557:18 0.000588356
*RES
1 *1162:Y *557:18 46.7851 
2 *557:18 *1164:A2 9.24915 
*END

*D_NET *558 0.00206458
*CONN
*I *1164:B1 I *D sky130_fd_sc_hd__a21oi_1
*I *1163:Y O *D sky130_fd_sc_hd__o21ai_0
*CAP
1 *1164:B1 0.000488579
2 *1163:Y 0.000488579
3 data_out[7] *1164:B1 1.66626e-05
4 *1043:A1 *1164:B1 0.000333559
5 *1163:A1 *1164:B1 6.14273e-05
6 *1428:D *1164:B1 0.000476898
7 *62:8 *1164:B1 5.07314e-05
8 *430:175 *1164:B1 0.000148144
*RES
1 *1163:Y *1164:B1 43.6289 
*END

*D_NET *559 0.000971509
*CONN
*I *1006:A0 I *D sky130_fd_sc_hd__mux4_2
*I *1389:Q O *D sky130_fd_sc_hd__edfxtp_1
*CAP
1 *1006:A0 0.000427067
2 *1389:Q 0.000427067
3 *1006:A0 *1006:A1 0
4 *432:14 *1006:A0 0.000117376
*RES
1 *1389:Q *1006:A0 37.8406 
*END

*D_NET *560 0.000634504
*CONN
*I *1056:A0 I *D sky130_fd_sc_hd__mux4_2
*I *1399:Q O *D sky130_fd_sc_hd__edfxtp_1
*CAP
1 *1056:A0 0.000195907
2 *1399:Q 0.000195907
3 *1056:A0 *1655:CLK 9.60366e-05
4 *1057:A0 *1056:A0 6.08467e-05
5 *1059:A2 *1056:A0 1.5714e-05
6 *2:43 *1056:A0 7.32024e-06
7 *69:41 *1056:A0 6.27718e-05
8 *69:47 *1056:A0 0
9 *70:40 *1056:A0 0
*RES
1 *1399:Q *1056:A0 31.7455 
*END

*D_NET *561 0.000338479
*CONN
*I *1061:A0 I *D sky130_fd_sc_hd__mux4_2
*I *1400:Q O *D sky130_fd_sc_hd__edfxtp_1
*CAP
1 *1061:A0 0.000150583
2 *1400:Q 0.000150583
3 *1061:A0 *1061:A1 0
4 *1061:A0 *859:50 7.32024e-06
5 *1061:A0 *881:119 0
6 *1061:A0 *881:121 0
7 *1062:A0 *1061:A0 2.99929e-05
*RES
1 *1400:Q *1061:A0 31.0221 
*END

*D_NET *562 0.00135528
*CONN
*I *1066:A0 I *D sky130_fd_sc_hd__mux4_2
*I *1401:Q O *D sky130_fd_sc_hd__edfxtp_1
*CAP
1 *1066:A0 0.000347012
2 *1401:Q 0.000347012
3 *1066:A0 *984:B 0
4 *1066:A0 *1050:S0 5.69183e-05
5 *1066:A0 *1066:A1 0
6 *1066:A0 *1465:CLK 8.32204e-06
7 *1066:A0 *882:133 0.000250293
8 *1066:A0 *890:123 2.8267e-05
9 *1066:A0 *890:137 0.00031746
10 *4:27 *1066:A0 0
*RES
1 *1401:Q *1066:A0 38.7444 
*END

*D_NET *563 0.00114197
*CONN
*I *1071:A0 I *D sky130_fd_sc_hd__mux4_2
*I *1402:Q O *D sky130_fd_sc_hd__edfxtp_1
*CAP
1 *1071:A0 0.000391314
2 *1402:Q 0.000391314
3 *1071:A0 *1071:A1 0
4 *1071:A0 *1071:A3 0.000248462
5 *484:14 *1071:A0 0.000110884
*RES
1 *1402:Q *1071:A0 37.8406 
*END

*D_NET *564 0.00168884
*CONN
*I *1076:A0 I *D sky130_fd_sc_hd__mux4_2
*I *1403:Q O *D sky130_fd_sc_hd__edfxtp_1
*CAP
1 *1076:A0 0.000780765
2 *1403:Q 0.000780765
3 *1076:A0 *1076:A1 6.3657e-05
4 *1076:A0 *1076:A3 6.3657e-05
5 *1076:A0 *1076:S1 0
6 *1076:A0 *1595:DE 0
7 *1076:A0 *1627:DE 0
*RES
1 *1403:Q *1076:A0 46.4243 
*END

*D_NET *565 0.00172845
*CONN
*I *1081:A0 I *D sky130_fd_sc_hd__mux4_2
*I *1404:Q O *D sky130_fd_sc_hd__edfxtp_1
*CAP
1 *1081:A0 0.000606283
2 *1404:Q 0.000606283
3 *963:B *1081:A0 4.17528e-05
4 *1082:A0 *1081:A0 0.000210219
5 *423:104 *1081:A0 0.000192805
6 *424:113 *1081:A0 0
7 *493:16 *1081:A0 7.11056e-05
*RES
1 *1404:Q *1081:A0 42.103 
*END

*D_NET *566 0.00184992
*CONN
*I *1086:A0 I *D sky130_fd_sc_hd__mux4_2
*I *1405:Q O *D sky130_fd_sc_hd__edfxtp_1
*CAP
1 *1086:A0 0.000620634
2 *1405:Q 0.000620634
3 *1086:A0 *1086:A1 0
4 *496:12 *1086:A0 0.000608652
*RES
1 *1405:Q *1086:A0 42.8236 
*END

*D_NET *567 0.00156226
*CONN
*I *1091:A0 I *D sky130_fd_sc_hd__mux4_2
*I *1406:Q O *D sky130_fd_sc_hd__edfxtp_1
*CAP
1 *1091:A0 0.000532784
2 *1406:Q 0.000532784
3 *1091:A0 *1075:S0 0
4 *1091:A0 *1467:CLK 0.000315549
5 *1091:A0 *2295:A 1.91246e-05
6 *1091:A0 *881:204 2.59921e-05
7 *1091:A0 *905:72 0.000136026
8 *1092:A0 *1091:A0 0
*RES
1 *1406:Q *1091:A0 38.8104 
*END

*D_NET *568 0.000380266
*CONN
*I *1096:A0 I *D sky130_fd_sc_hd__mux4_2
*I *1407:Q O *D sky130_fd_sc_hd__edfxtp_1
*CAP
1 *1096:A0 9.9521e-05
2 *1407:Q 9.9521e-05
3 *1096:A0 *858:197 7.50722e-05
4 *1096:A0 *884:90 3.10797e-05
5 *68:239 *1096:A0 7.50722e-05
*RES
1 *1407:Q *1096:A0 29.9157 
*END

*D_NET *569 0.000441281
*CONN
*I *1101:A0 I *D sky130_fd_sc_hd__mux4_2
*I *1408:Q O *D sky130_fd_sc_hd__edfxtp_1
*CAP
1 *1101:A0 0.000199126
2 *1408:Q 0.000199126
3 *1101:A0 *879:77 1.46927e-05
4 *509:18 *1101:A0 2.83365e-05
*RES
1 *1408:Q *1101:A0 31.0249 
*END

*D_NET *570 0.000211768
*CONN
*I *1011:A0 I *D sky130_fd_sc_hd__mux4_2
*I *1390:Q O *D sky130_fd_sc_hd__edfxtp_1
*CAP
1 *1011:A0 8.244e-05
2 *1390:Q 8.244e-05
3 *1011:A0 *875:274 1.85511e-05
4 *1011:A0 *880:53 2.83365e-05
*RES
1 *1390:Q *1011:A0 29.3611 
*END

*D_NET *571 0.0011644
*CONN
*I *1106:A0 I *D sky130_fd_sc_hd__mux4_2
*I *1409:Q O *D sky130_fd_sc_hd__edfxtp_1
*CAP
1 *1106:A0 0.000469775
2 *1409:Q 0.000469775
3 *1106:A0 *860:88 2.01098e-05
4 *1106:S1 *1106:A0 1.55025e-05
5 *1377:D *1106:A0 7.8406e-05
6 *1505:D *1106:A0 5.04829e-06
7 *13:100 *1106:A0 0
8 *68:318 *1106:A0 0
9 *512:20 *1106:A0 0.000105779
*RES
1 *1409:Q *1106:A0 36.7342 
*END

*D_NET *572 0.00123572
*CONN
*I *1111:A0 I *D sky130_fd_sc_hd__mux4_2
*I *1410:Q O *D sky130_fd_sc_hd__edfxtp_1
*CAP
1 *1111:A0 0.00034669
2 *1410:Q 0.00034669
3 *1111:A0 *1111:A2 0.000259234
4 *516:14 *1111:A0 0.000283108
*RES
1 *1410:Q *1111:A0 37.8406 
*END

*D_NET *573 0.000826426
*CONN
*I *1116:A0 I *D sky130_fd_sc_hd__mux4_2
*I *1411:Q O *D sky130_fd_sc_hd__edfxtp_1
*CAP
1 *1116:A0 0.000413213
2 *1411:Q 0.000413213
3 *1116:A0 *862:124 0
4 *1116:A0 *881:117 0
*RES
1 *1411:Q *1116:A0 33.798 
*END

*D_NET *574 0.00191635
*CONN
*I *1121:A0 I *D sky130_fd_sc_hd__mux4_2
*I *1412:Q O *D sky130_fd_sc_hd__edfxtp_1
*CAP
1 *1121:A0 0.000374987
2 *1412:Q 0.000374987
3 *1121:A0 *1121:A1 0
4 *1121:A0 *2298:A 0.000103329
5 *1121:A0 *856:223 0.000118166
6 *1120:S1 *1121:A0 0.000196329
7 *13:28 *1121:A0 0
8 *69:232 *1121:A0 0.000118166
9 *524:16 *1121:A0 0.000630392
*RES
1 *1412:Q *1121:A0 42.2662 
*END

*D_NET *575 0.000862982
*CONN
*I *1126:A0 I *D sky130_fd_sc_hd__mux4_2
*I *1413:Q O *D sky130_fd_sc_hd__edfxtp_1
*CAP
1 *1126:A0 0.000404419
2 *1413:Q 0.000404419
3 *1126:A0 *1126:A1 0
4 *1126:A0 *889:72 2.41503e-05
5 *423:368 *1126:A0 2.99929e-05
*RES
1 *1413:Q *1126:A0 33.798 
*END

*D_NET *576 0.000671936
*CONN
*I *1131:A0 I *D sky130_fd_sc_hd__mux4_2
*I *1414:Q O *D sky130_fd_sc_hd__edfxtp_1
*CAP
1 *1131:A0 0.000326612
2 *1414:Q 0.000326612
3 *417:489 *1131:A0 1.87117e-05
*RES
1 *1414:Q *1131:A0 32.5494 
*END

*D_NET *577 0.000368012
*CONN
*I *1136:A0 I *D sky130_fd_sc_hd__mux4_2
*I *1415:Q O *D sky130_fd_sc_hd__edfxtp_1
*CAP
1 *1136:A0 0.000149157
2 *1415:Q 0.000149157
3 *1136:A0 *1136:A3 0
4 *1135:S1 *1136:A0 0
5 *1137:A0 *1136:A0 6.96979e-05
*RES
1 *1415:Q *1136:A0 31.0221 
*END

*D_NET *578 0.00111216
*CONN
*I *1141:A0 I *D sky130_fd_sc_hd__mux4_2
*I *1416:Q O *D sky130_fd_sc_hd__edfxtp_1
*CAP
1 *1141:A0 0.000471617
2 *1416:Q 0.000471617
3 *1141:A0 *1141:A1 0.000117624
4 *1141:A0 *1622:DE 0
5 *1141:A0 *862:70 0
6 *1142:A0 *1141:A0 5.13058e-05
*RES
1 *1416:Q *1141:A0 39.3272 
*END

*D_NET *579 0.00223292
*CONN
*I *1146:A0 I *D sky130_fd_sc_hd__mux4_2
*I *1417:Q O *D sky130_fd_sc_hd__edfxtp_1
*CAP
1 *1146:A0 0.000519197
2 *1417:Q 0.000519197
3 *1146:S1 *1146:A0 0
4 *1190:B *1146:A0 1.6352e-05
5 *417:495 *1146:A0 0.000111216
6 *417:497 *1146:A0 7.07407e-05
7 *544:14 *1146:A0 0.000996217
*RES
1 *1417:Q *1146:A0 45.9712 
*END

*D_NET *580 0.000381338
*CONN
*I *1151:A0 I *D sky130_fd_sc_hd__mux4_2
*I *1418:Q O *D sky130_fd_sc_hd__edfxtp_1
*CAP
1 *1151:A0 0.000190669
2 *1418:Q 0.000190669
*RES
1 *1418:Q *1151:A0 30.4703 
*END

*D_NET *581 0.00127788
*CONN
*I *1016:A0 I *D sky130_fd_sc_hd__mux4_2
*I *1391:Q O *D sky130_fd_sc_hd__edfxtp_1
*CAP
1 *1016:A0 0.000593238
2 *1391:Q 0.000593238
3 *1016:A0 *1016:A2 2.65349e-05
4 *440:14 *1016:A0 6.48653e-05
*RES
1 *1391:Q *1016:A0 38.4249 
*END

*D_NET *582 0.000380169
*CONN
*I *1156:A0 I *D sky130_fd_sc_hd__mux4_2
*I *1419:Q O *D sky130_fd_sc_hd__edfxtp_1
*CAP
1 *1156:A0 0.000101965
2 *1419:Q 0.000101965
3 *1156:A0 *1419:CLK 3.0917e-05
4 *1156:A0 *904:54 7.26606e-05
5 *1156:S0 *1156:A0 7.26606e-05
*RES
1 *1419:Q *1156:A0 29.9157 
*END

*D_NET *583 0.00109986
*CONN
*I *1161:A0 I *D sky130_fd_sc_hd__mux4_2
*I *1420:Q O *D sky130_fd_sc_hd__edfxtp_1
*CAP
1 *1161:A0 0.000430326
2 *1420:Q 0.000430326
3 *1161:A0 *1161:S0 0
4 *1162:A0 *1161:A0 0.00022067
5 *1228:A *1161:A0 0
6 *1228:B *1161:A0 0
7 *25:27 *1161:A0 1.85358e-05
8 *423:368 *1161:A0 0
*RES
1 *1420:Q *1161:A0 38.004 
*END

*D_NET *584 0.00124469
*CONN
*I *1021:A0 I *D sky130_fd_sc_hd__mux4_2
*I *1392:Q O *D sky130_fd_sc_hd__edfxtp_1
*CAP
1 *1021:A0 0.000359349
2 *1392:Q 0.000359349
3 *1021:A0 *1021:A2 0.000525989
4 *1021:A0 *858:16 0
*RES
1 *1392:Q *1021:A0 37.6662 
*END

*D_NET *585 0.00114617
*CONN
*I *1026:A0 I *D sky130_fd_sc_hd__mux4_2
*I *1393:Q O *D sky130_fd_sc_hd__edfxtp_1
*CAP
1 *1026:A0 0.000395564
2 *1393:Q 0.000395564
3 *1026:A0 *861:86 0.000258388
4 *1255:C *1026:A0 7.86847e-05
5 *1543:D *1026:A0 1.79672e-05
*RES
1 *1393:Q *1026:A0 34.9072 
*END

*D_NET *586 0.00177372
*CONN
*I *1031:A0 I *D sky130_fd_sc_hd__mux4_2
*I *1394:Q O *D sky130_fd_sc_hd__edfxtp_1
*CAP
1 *1031:A0 0.000350958
2 *1394:Q 0.000350958
3 *1032:A0 *1031:A0 0.00034079
4 *28:76 *1031:A0 1.93103e-06
5 *69:65 *1031:A0 0.000258188
6 *69:75 *1031:A0 2.38092e-05
7 *423:104 *1031:A0 0.000447084
*RES
1 *1394:Q *1031:A0 38.7782 
*END

*D_NET *587 0.00124326
*CONN
*I *1036:A0 I *D sky130_fd_sc_hd__mux4_2
*I *1395:Q O *D sky130_fd_sc_hd__edfxtp_1
*CAP
1 *1036:A0 0.000398142
2 *1395:Q 0.000398142
3 *1036:A0 *1035:S0 0.000124379
4 *1036:A0 *1035:S1 0
5 *1036:A0 *1036:A2 5.41227e-05
6 *1036:A0 *1036:A3 0.000217937
7 *1036:A0 *1480:DE 1.43439e-05
8 *1036:A0 *882:107 2.7823e-05
9 *424:364 *1036:A0 8.36586e-06
*RES
1 *1395:Q *1036:A0 38.3178 
*END

*D_NET *588 0.000239699
*CONN
*I *1041:A0 I *D sky130_fd_sc_hd__mux4_2
*I *1396:Q O *D sky130_fd_sc_hd__edfxtp_1
*CAP
1 *1041:A0 8.29716e-05
2 *1396:Q 8.29716e-05
3 *1041:A0 *1041:A1 0
4 *1042:A0 *1041:A0 7.37562e-05
*RES
1 *1396:Q *1041:A0 29.3611 
*END

*D_NET *589 0.00167357
*CONN
*I *1046:A0 I *D sky130_fd_sc_hd__mux4_2
*I *1397:Q O *D sky130_fd_sc_hd__edfxtp_1
*CAP
1 *1046:A0 0.000784232
2 *1397:Q 0.000784232
3 *1046:A0 *1046:A1 4.14448e-05
4 *1046:A0 *1046:A2 6.3657e-05
5 *1046:A0 *1046:A3 0
*RES
1 *1397:Q *1046:A0 42.687 
*END

*D_NET *590 0.000807566
*CONN
*I *1051:A0 I *D sky130_fd_sc_hd__mux4_2
*I *1398:Q O *D sky130_fd_sc_hd__edfxtp_1
*CAP
1 *1051:A0 0.000364441
2 *1398:Q 0.000364441
3 *1051:A0 *1051:S0 7.86847e-05
*RES
1 *1398:Q *1051:A0 33.2434 
*END

*D_NET *591 0.00089009
*CONN
*I *1006:A1 I *D sky130_fd_sc_hd__mux4_2
*I *1613:Q O *D sky130_fd_sc_hd__edfxtp_1
*CAP
1 *1006:A1 0.000436061
2 *1613:Q 0.000436061
3 *1006:A1 *1005:S1 0
4 *1006:A1 *880:221 1.79672e-05
5 *1006:A0 *1006:A1 0
*RES
1 *1613:Q *1006:A1 37.8055 
*END

*D_NET *592 0.000376355
*CONN
*I *1056:A1 I *D sky130_fd_sc_hd__mux4_2
*I *1623:Q O *D sky130_fd_sc_hd__edfxtp_1
*CAP
1 *1056:A1 0.000135869
2 *1623:Q 0.000135869
3 *1056:A1 *1056:A3 0
4 *1057:A0 *1056:A1 2.8322e-05
5 *1059:A2 *1056:A1 4.28349e-06
6 *69:41 *1056:A1 6.46815e-05
7 *127:20 *1056:A1 7.33021e-06
*RES
1 *1623:Q *1056:A1 30.4998 
*END

*D_NET *593 0.000929685
*CONN
*I *1061:A1 I *D sky130_fd_sc_hd__mux4_2
*I *1624:Q O *D sky130_fd_sc_hd__edfxtp_1
*CAP
1 *1061:A1 0.000428324
2 *1624:Q 0.000428324
3 *1061:A1 *2296:A 3.50524e-05
4 *1061:A1 *874:414 3.79836e-05
5 *1061:A1 *881:119 0
6 *1061:A0 *1061:A1 0
7 *1062:A0 *1061:A1 0
*RES
1 *1624:Q *1061:A1 37.2509 
*END

*D_NET *594 0.00114796
*CONN
*I *1066:A1 I *D sky130_fd_sc_hd__mux4_2
*I *1625:Q O *D sky130_fd_sc_hd__edfxtp_1
*CAP
1 *1066:A1 0.00054912
2 *1625:Q 0.00054912
3 *1066:A1 *984:B 0
4 *1066:A1 *1065:S1 0
5 *1066:A1 *856:333 0
6 *1066:A1 *860:58 0
7 *1066:A0 *1066:A1 0
8 *1401:D *1066:A1 0
9 *4:17 *1066:A1 0
10 *4:27 *1066:A1 4.97211e-05
*RES
1 *1625:Q *1066:A1 40.1605 
*END

*D_NET *595 0.00106768
*CONN
*I *1071:A1 I *D sky130_fd_sc_hd__mux4_2
*I *1626:Q O *D sky130_fd_sc_hd__edfxtp_1
*CAP
1 *1071:A1 0.000533838
2 *1626:Q 0.000533838
3 *1071:A1 *1071:A3 0
4 *1071:A1 *1405:DE 0
5 *1071:A1 *861:103 0
6 *1071:A0 *1071:A1 0
*RES
1 *1626:Q *1071:A1 38.9147 
*END

*D_NET *596 0.000849507
*CONN
*I *1076:A1 I *D sky130_fd_sc_hd__mux4_2
*I *1627:Q O *D sky130_fd_sc_hd__edfxtp_1
*CAP
1 *1076:A1 0.000247879
2 *1627:Q 0.000247879
3 *1076:A1 *1076:A3 0.000189916
4 *1076:A0 *1076:A1 6.3657e-05
5 *488:14 *1076:A1 0.000100175
*RES
1 *1627:Q *1076:A1 35.2125 
*END

*D_NET *597 0.000880688
*CONN
*I *1081:A1 I *D sky130_fd_sc_hd__mux4_2
*I *1628:Q O *D sky130_fd_sc_hd__edfxtp_1
*CAP
1 *1081:A1 0.000409751
2 *1628:Q 0.000409751
3 *1081:A1 *1081:A3 0
4 *1180:A *1081:A1 1.21461e-06
5 *423:104 *1081:A1 5.99717e-05
*RES
1 *1628:Q *1081:A1 34.4891 
*END

*D_NET *598 0.00130758
*CONN
*I *1086:A1 I *D sky130_fd_sc_hd__mux4_2
*I *1629:Q O *D sky130_fd_sc_hd__edfxtp_1
*CAP
1 *1086:A1 0.00065379
2 *1629:Q 0.00065379
3 *1086:A1 *1086:A3 0
4 *1086:A0 *1086:A1 0
5 *496:12 *1086:A1 0
*RES
1 *1629:Q *1086:A1 38.6444 
*END

*D_NET *599 0.000948773
*CONN
*I *1091:A1 I *D sky130_fd_sc_hd__mux4_2
*I *1630:Q O *D sky130_fd_sc_hd__edfxtp_1
*CAP
1 *1091:A1 0.00046832
2 *1630:Q 0.00046832
3 *1091:A1 *1075:S0 9.98348e-06
4 *1091:A1 *881:187 0
5 *1091:A1 *881:259 2.14842e-06
6 *1092:A0 *1091:A1 0
*RES
1 *1630:Q *1091:A1 38.636 
*END

*D_NET *600 0.000908982
*CONN
*I *1096:A1 I *D sky130_fd_sc_hd__mux4_2
*I *1631:Q O *D sky130_fd_sc_hd__edfxtp_1
*CAP
1 *1096:A1 0.000392818
2 *1631:Q 0.000392818
3 *68:239 *1096:A1 0.000123346
4 *69:53 *1096:A1 0
*RES
1 *1631:Q *1096:A1 36.975 
*END

*D_NET *601 0.000806489
*CONN
*I *1101:A1 I *D sky130_fd_sc_hd__mux4_2
*I *1632:Q O *D sky130_fd_sc_hd__edfxtp_1
*CAP
1 *1101:A1 0.000251667
2 *1632:Q 0.000251667
3 *1101:A1 *1100:S1 0
4 *1101:A1 *880:141 0.00024449
5 *509:18 *1101:A1 5.86637e-05
*RES
1 *1632:Q *1101:A1 32.8253 
*END

*D_NET *602 0.000402862
*CONN
*I *1011:A1 I *D sky130_fd_sc_hd__mux4_2
*I *1614:Q O *D sky130_fd_sc_hd__edfxtp_1
*CAP
1 *1011:A1 0.000172662
2 *1614:Q 0.000172662
3 *1011:A1 *877:158 2.14362e-05
4 *1011:A1 *880:53 0
5 *424:272 *1011:A1 3.6102e-05
*RES
1 *1614:Q *1011:A1 31.1615 
*END

*D_NET *603 0.000725895
*CONN
*I *1106:A1 I *D sky130_fd_sc_hd__mux4_2
*I *1633:Q O *D sky130_fd_sc_hd__edfxtp_1
*CAP
1 *1106:A1 0.00029293
2 *1633:Q 0.00029293
3 *1106:A1 *1106:A2 0
4 *1106:A1 *860:103 0.000140036
*RES
1 *1633:Q *1106:A1 32.8253 
*END

*D_NET *604 0.00100099
*CONN
*I *1111:A1 I *D sky130_fd_sc_hd__mux4_2
*I *1634:Q O *D sky130_fd_sc_hd__edfxtp_1
*CAP
1 *1111:A1 0.000500497
2 *1634:Q 0.000500497
3 *1111:A1 *1071:S1 0
4 *1111:A1 *1111:A2 0
5 *516:14 *1111:A1 0
*RES
1 *1634:Q *1111:A1 39.7452 
*END

*D_NET *605 0.00131998
*CONN
*I *1116:A1 I *D sky130_fd_sc_hd__mux4_2
*I *1635:Q O *D sky130_fd_sc_hd__edfxtp_1
*CAP
1 *1116:A1 0.000365749
2 *1635:Q 0.000365749
3 *1116:A1 *1625:CLK 0
4 *1116:A1 *867:192 0.000443035
5 *4:27 *1116:A1 0
6 *520:14 *1116:A1 0.000145447
*RES
1 *1635:Q *1116:A1 35.0437 
*END

*D_NET *606 0.000635741
*CONN
*I *1121:A1 I *D sky130_fd_sc_hd__mux4_2
*I *1636:Q O *D sky130_fd_sc_hd__edfxtp_1
*CAP
1 *1121:A1 0.000242025
2 *1636:Q 0.000242025
3 *1121:A0 *1121:A1 0
4 *13:13 *1121:A1 4.04935e-05
5 *13:28 *1121:A1 0.000111197
6 *524:16 *1121:A1 0
*RES
1 *1636:Q *1121:A1 33.9289 
*END

*D_NET *607 0.00132702
*CONN
*I *1126:A1 I *D sky130_fd_sc_hd__mux4_2
*I *1637:Q O *D sky130_fd_sc_hd__edfxtp_1
*CAP
1 *1126:A1 0.000520743
2 *1637:Q 0.000520743
3 *1126:A1 *1126:A2 0
4 *1126:A1 *1126:A3 0.000285532
5 *1126:A1 *1509:CLK 0
6 *1126:A1 *889:133 0
7 *1126:A0 *1126:A1 0
8 *423:368 *1126:A1 0
*RES
1 *1637:Q *1126:A1 40.297 
*END

*D_NET *608 0.0010687
*CONN
*I *1131:A1 I *D sky130_fd_sc_hd__mux4_2
*I *1638:Q O *D sky130_fd_sc_hd__edfxtp_1
*CAP
1 *1131:A1 0.000463442
2 *1638:Q 0.000463442
3 *1131:A1 *1131:A3 0
4 *1131:A1 *1131:S0 3.5094e-05
5 *1131:A1 *864:53 2.84758e-05
6 *1131:A1 *878:129 7.68409e-05
7 *427:366 *1131:A1 1.4091e-06
*RES
1 *1638:Q *1131:A1 35.5983 
*END

*D_NET *609 0.00133025
*CONN
*I *1136:A1 I *D sky130_fd_sc_hd__mux4_2
*I *1639:Q O *D sky130_fd_sc_hd__edfxtp_1
*CAP
1 *1136:A1 0.00065806
2 *1639:Q 0.00065806
3 *1137:A0 *1136:A1 1.41307e-05
*RES
1 *1639:Q *1136:A1 42.5505 
*END

*D_NET *610 0.00126836
*CONN
*I *1141:A1 I *D sky130_fd_sc_hd__mux4_2
*I *1640:Q O *D sky130_fd_sc_hd__edfxtp_1
*CAP
1 *1141:A1 0.000543546
2 *1640:Q 0.000543546
3 *1141:A1 *875:230 6.36477e-05
4 *1141:A0 *1141:A1 0.000117624
*RES
1 *1640:Q *1141:A1 38.8076 
*END

*D_NET *611 0.00200841
*CONN
*I *1146:A1 I *D sky130_fd_sc_hd__mux4_2
*I *1641:Q O *D sky130_fd_sc_hd__edfxtp_1
*CAP
1 *1146:A1 0.000651781
2 *1641:Q 0.000651781
3 *1146:A1 *1146:S0 0.000275344
4 *1542:D *1146:A1 0.000324333
5 *18:15 *1146:A1 0
6 *69:477 *1146:A1 4.23912e-05
7 *544:8 *1146:A1 6.27782e-05
8 *544:14 *1146:A1 0
*RES
1 *1641:Q *1146:A1 44.9083 
*END

*D_NET *612 0.000806576
*CONN
*I *1151:A1 I *D sky130_fd_sc_hd__mux4_2
*I *1642:Q O *D sky130_fd_sc_hd__edfxtp_1
*CAP
1 *1151:A1 0.000403288
2 *1642:Q 0.000403288
*RES
1 *1642:Q *1151:A1 35.3168 
*END

*D_NET *613 0.00240758
*CONN
*I *1016:A1 I *D sky130_fd_sc_hd__mux4_2
*I *1615:Q O *D sky130_fd_sc_hd__edfxtp_1
*CAP
1 *1016:A1 0.000896334
2 *1615:Q 0.000896334
3 *1016:A1 *1016:A2 4.67839e-05
4 *1016:A1 *864:20 0.000109724
5 *1583:D *1016:A1 0
6 *1583:DE *1016:A1 0.000231543
7 *125:23 *1016:A1 0.000226865
*RES
1 *1615:Q *1016:A1 45.57 
*END

*D_NET *614 0.00110205
*CONN
*I *1156:A1 I *D sky130_fd_sc_hd__mux4_2
*I *1643:Q O *D sky130_fd_sc_hd__edfxtp_1
*CAP
1 *1156:A1 0.000241507
2 *1643:Q 0.000241507
3 *1156:S0 *1156:A1 0.000127968
4 *24:46 *1156:A1 7.09666e-06
5 *24:64 *1156:A1 0.000483975
*RES
1 *1643:Q *1156:A1 36.4204 
*END

*D_NET *615 0.000289272
*CONN
*I *1161:A1 I *D sky130_fd_sc_hd__mux4_2
*I *1644:Q O *D sky130_fd_sc_hd__edfxtp_1
*CAP
1 *1161:A1 9.54431e-05
2 *1644:Q 9.54431e-05
3 *1161:A1 *1161:S0 9.83856e-05
4 *1161:A1 *860:48 0
*RES
1 *1644:Q *1161:A1 29.7764 
*END

*D_NET *616 0.00163998
*CONN
*I *1021:A1 I *D sky130_fd_sc_hd__mux4_2
*I *1616:Q O *D sky130_fd_sc_hd__edfxtp_1
*CAP
1 *1021:A1 0.000734282
2 *1616:Q 0.000734282
3 *1021:A1 *1021:A2 0.00017142
4 *1021:A1 *1021:A3 0
5 *1021:A1 *856:10 0
6 *1021:A1 *856:14 0
7 *1021:A1 *858:16 0
8 *1021:A1 *860:13 0
*RES
1 *1616:Q *1021:A1 44.4496 
*END

*D_NET *617 0.00164499
*CONN
*I *1026:A1 I *D sky130_fd_sc_hd__mux4_2
*I *1617:Q O *D sky130_fd_sc_hd__edfxtp_1
*CAP
1 *1026:A1 0.000424251
2 *1617:Q 0.000424251
3 *1026:A1 *1255:B 0.000229173
4 *1026:A1 *870:56 0.000129744
5 *1026:A1 *878:148 1.49898e-05
6 *1255:C *1026:A1 9.01028e-05
7 *427:404 *1026:A1 0.000332475
*RES
1 *1617:Q *1026:A1 40.0267 
*END

*D_NET *618 0.000643246
*CONN
*I *1031:A1 I *D sky130_fd_sc_hd__mux4_2
*I *1618:Q O *D sky130_fd_sc_hd__edfxtp_1
*CAP
1 *1031:A1 0.000257181
2 *1618:Q 0.000257181
3 *1031:A1 *894:294 6.16053e-05
4 *1458:D *1031:A1 6.72781e-05
5 *69:81 *1031:A1 0
*RES
1 *1618:Q *1031:A1 32.8253 
*END

*D_NET *619 0.00171578
*CONN
*I *1036:A1 I *D sky130_fd_sc_hd__mux4_2
*I *1619:Q O *D sky130_fd_sc_hd__edfxtp_1
*CAP
1 *1036:A1 0.000840142
2 *1619:Q 0.000840142
3 *1036:A1 *1035:S1 0
4 *1036:A1 *881:123 0
5 *1036:A1 *881:145 3.54999e-05
6 *20:34 *1036:A1 0
*RES
1 *1619:Q *1036:A1 40.4504 
*END

*D_NET *620 0.000904969
*CONN
*I *1041:A1 I *D sky130_fd_sc_hd__mux4_2
*I *1620:Q O *D sky130_fd_sc_hd__edfxtp_1
*CAP
1 *1041:A1 0.000394012
2 *1620:Q 0.000394012
3 *1041:A1 *885:89 5.21758e-06
4 *1041:A0 *1041:A1 0
5 *1042:A0 *1041:A1 0
6 *69:47 *1041:A1 0
7 *461:12 *1041:A1 0.000111728
*RES
1 *1620:Q *1041:A1 36.4204 
*END

*D_NET *621 0.00112172
*CONN
*I *1046:A1 I *D sky130_fd_sc_hd__mux4_2
*I *1621:Q O *D sky130_fd_sc_hd__edfxtp_1
*CAP
1 *1046:A1 0.000507635
2 *1621:Q 0.000507635
3 *1046:A0 *1046:A1 4.14448e-05
4 *464:26 *1046:A1 6.50088e-05
*RES
1 *1621:Q *1046:A1 36.1529 
*END

*D_NET *622 0.00106871
*CONN
*I *1051:A1 I *D sky130_fd_sc_hd__mux4_2
*I *1622:Q O *D sky130_fd_sc_hd__edfxtp_1
*CAP
1 *1051:A1 0.000316728
2 *1622:Q 0.000316728
3 *1051:A1 *1051:S0 0
4 *1051:A1 *882:196 0.000133857
5 *1051:A1 *903:268 0.000133086
6 *1052:A0 *1051:A1 0.000168313
*RES
1 *1622:Q *1051:A1 36.3458 
*END

*D_NET *623 0.000370716
*CONN
*I *1006:A2 I *D sky130_fd_sc_hd__mux4_2
*I *1517:Q O *D sky130_fd_sc_hd__edfxtp_1
*CAP
1 *1006:A2 0.000100229
2 *1517:Q 0.000100229
3 *1006:A2 *1005:S0 5.88662e-05
4 *1006:A2 *1389:DE 8.07794e-05
5 *1006:A2 *882:306 3.06126e-05
*RES
1 *1517:Q *1006:A2 31.0221 
*END

*D_NET *624 0.00102654
*CONN
*I *1056:A2 I *D sky130_fd_sc_hd__mux4_2
*I *1527:Q O *D sky130_fd_sc_hd__edfxtp_1
*CAP
1 *1056:A2 0.000485687
2 *1527:Q 0.000485687
3 *1056:A2 *1527:CLK 5.51617e-05
*RES
1 *1527:Q *1056:A2 28.3726 
*END

*D_NET *625 0.00141714
*CONN
*I *1061:A2 I *D sky130_fd_sc_hd__mux4_2
*I *1528:Q O *D sky130_fd_sc_hd__edfxtp_1
*CAP
1 *1061:A2 0.000404055
2 *1528:Q 0.000404055
3 *1061:A2 *1619:DE 0.00019781
4 *1061:A2 *862:43 0.000411221
*RES
1 *1528:Q *1061:A2 25.5996 
*END

*D_NET *626 0.00114871
*CONN
*I *1066:A2 I *D sky130_fd_sc_hd__mux4_2
*I *1529:Q O *D sky130_fd_sc_hd__edfxtp_1
*CAP
1 *1066:A2 0.000271859
2 *1529:Q 0.000271859
3 *1066:A2 *984:C 2.85531e-06
4 *1066:A2 *1065:S1 1.98565e-05
5 *1066:A2 *1066:A3 8.36586e-06
6 *1066:A2 *860:58 0.000168319
7 *1066:A2 *881:309 0.000109421
8 *1066:A2 *890:137 0.000109421
9 *1401:D *1066:A2 0.000186751
*RES
1 *1529:Q *1066:A2 34.5186 
*END

*D_NET *627 0.000540116
*CONN
*I *1071:A2 I *D sky130_fd_sc_hd__mux4_2
*I *1530:Q O *D sky130_fd_sc_hd__edfxtp_1
*CAP
1 *1071:A2 0.000255062
2 *1530:Q 0.000255062
3 *1071:A2 *861:103 2.99929e-05
4 *1071:A2 *864:79 0
*RES
1 *1530:Q *1071:A2 31.5795 
*END

*D_NET *628 0.00165613
*CONN
*I *1076:A2 I *D sky130_fd_sc_hd__mux4_2
*I *1531:Q O *D sky130_fd_sc_hd__edfxtp_1
*CAP
1 *1076:A2 0.000403755
2 *1531:Q 0.000403755
3 *1076:A2 *1086:S0 3.06126e-05
4 *1076:A2 *1595:DE 0.000168194
5 *1076:A2 *1627:DE 0.000261007
6 *1076:A2 *882:320 8.63345e-05
7 *1595:D *1076:A2 0.000302473
*RES
1 *1531:Q *1076:A2 39.8846 
*END

*D_NET *629 0.002451
*CONN
*I *1081:A2 I *D sky130_fd_sc_hd__mux4_2
*I *1532:Q O *D sky130_fd_sc_hd__edfxtp_1
*CAP
1 *1081:A2 0.000483506
2 *1532:Q 0.000483506
3 *1081:A2 *1081:A3 9.88052e-05
4 *1081:A2 *1276:B 0.000289512
5 *1081:A2 *1660:DE 0.000781286
6 *1180:A *1081:A2 0
7 *7:73 *1081:A2 0.000277454
8 *7:86 *1081:A2 0
9 *69:81 *1081:A2 0
10 *423:104 *1081:A2 0
11 *493:16 *1081:A2 3.6928e-05
*RES
1 *1532:Q *1081:A2 48.4739 
*END

*D_NET *630 0.000534773
*CONN
*I *1086:A2 I *D sky130_fd_sc_hd__mux4_2
*I *1533:Q O *D sky130_fd_sc_hd__edfxtp_1
*CAP
1 *1086:A2 0.000190508
2 *1533:Q 0.000190508
3 *1086:A2 *1627:DE 7.50722e-05
4 *1629:D *1086:A2 7.86847e-05
*RES
1 *1533:Q *1086:A2 31.0249 
*END

*D_NET *631 0.000467228
*CONN
*I *1091:A2 I *D sky130_fd_sc_hd__mux4_2
*I *1534:Q O *D sky130_fd_sc_hd__edfxtp_1
*CAP
1 *1091:A2 0.00014398
2 *1534:Q 0.00014398
3 *1091:A2 *1090:S0 5.80354e-05
4 *1091:A2 *1406:DE 6.64671e-06
5 *1091:A2 *856:187 2.4512e-05
6 *1091:A2 *859:77 6.63928e-05
7 *1091:A2 *882:196 2.3681e-05
*RES
1 *1534:Q *1091:A2 31.5767 
*END

*D_NET *632 0.000885452
*CONN
*I *1096:A2 I *D sky130_fd_sc_hd__mux4_2
*I *1535:Q O *D sky130_fd_sc_hd__edfxtp_1
*CAP
1 *1096:A2 0.000442726
2 *1535:Q 0.000442726
*RES
1 *1535:Q *1096:A2 27.2634 
*END

*D_NET *633 0.00101823
*CONN
*I *1101:A2 I *D sky130_fd_sc_hd__mux4_2
*I *1536:Q O *D sky130_fd_sc_hd__edfxtp_1
*CAP
1 *1101:A2 0.000509116
2 *1536:Q 0.000509116
*RES
1 *1536:Q *1101:A2 25.5996 
*END

*D_NET *634 0.00112715
*CONN
*I *1011:A2 I *D sky130_fd_sc_hd__mux4_2
*I *1518:Q O *D sky130_fd_sc_hd__edfxtp_1
*CAP
1 *1011:A2 0.000557456
2 *1518:Q 0.000557456
3 *1011:S0 *1011:A2 1.22366e-05
*RES
1 *1518:Q *1011:A2 26.1542 
*END

*D_NET *635 0.0016326
*CONN
*I *1106:A2 I *D sky130_fd_sc_hd__mux4_2
*I *1537:Q O *D sky130_fd_sc_hd__edfxtp_1
*CAP
1 *1106:A2 0.00061263
2 *1537:Q 0.00061263
3 *1106:A2 *1106:A3 7.09666e-06
4 *1106:A2 *1636:DE 0
5 *1106:A2 *860:103 0
6 *1106:A2 *868:67 4.01056e-05
7 *1106:A2 *877:71 0
8 *1106:A2 *877:82 7.14746e-05
9 *1106:A1 *1106:A2 0
10 *1409:D *1106:A2 0.000178204
11 *13:100 *1106:A2 0.000110458
*RES
1 *1537:Q *1106:A2 41.1626 
*END

*D_NET *636 0.00190653
*CONN
*I *1111:A2 I *D sky130_fd_sc_hd__mux4_2
*I *1538:Q O *D sky130_fd_sc_hd__edfxtp_1
*CAP
1 *1111:A2 0.000790366
2 *1538:Q 0.000790366
3 *1111:A0 *1111:A2 0.000259234
4 *1111:A1 *1111:A2 0
5 *516:14 *1111:A2 6.65668e-05
*RES
1 *1538:Q *1111:A2 40.4798 
*END

*D_NET *637 0.00103645
*CONN
*I *1116:A2 I *D sky130_fd_sc_hd__mux4_2
*I *1539:Q O *D sky130_fd_sc_hd__edfxtp_1
*CAP
1 *1116:A2 0.000518223
2 *1539:Q 0.000518223
*RES
1 *1539:Q *1116:A2 25.5996 
*END

*D_NET *638 0.00173424
*CONN
*I *1121:A2 I *D sky130_fd_sc_hd__mux4_2
*I *1540:Q O *D sky130_fd_sc_hd__edfxtp_1
*CAP
1 *1121:A2 0.000288587
2 *1540:Q 0.000288587
3 *1121:A2 *1121:A3 6.3657e-05
4 *1121:A2 *856:223 0.000207266
5 *1121:A2 *860:103 0.000598015
6 *418:142 *1121:A2 0.000273794
7 *541:16 *1121:A2 1.43298e-05
*RES
1 *1540:Q *1121:A2 40.8839 
*END

*D_NET *639 0.000745409
*CONN
*I *1126:A2 I *D sky130_fd_sc_hd__mux4_2
*I *1541:Q O *D sky130_fd_sc_hd__edfxtp_1
*CAP
1 *1126:A2 0.000372704
2 *1541:Q 0.000372704
3 *1126:A2 *1126:A3 0
4 *1126:A2 *1349:C 0
5 *1126:A1 *1126:A2 0
*RES
1 *1541:Q *1126:A2 36.0052 
*END

*D_NET *640 0.0011
*CONN
*I *1131:A2 I *D sky130_fd_sc_hd__mux4_2
*I *1542:Q O *D sky130_fd_sc_hd__edfxtp_1
*CAP
1 *1131:A2 0.000422501
2 *1542:Q 0.000422501
3 *1131:A2 *1146:S0 0
4 *1131:A2 *861:44 0.000108474
5 *1131:A2 *861:65 1.66771e-05
6 *1131:A2 *888:161 6.08467e-05
7 *1414:D *1131:A2 2.1558e-06
8 *69:477 *1131:A2 6.50727e-05
9 *69:489 *1131:A2 1.77537e-06
*RES
1 *1542:Q *1131:A2 36.0402 
*END

*D_NET *641 0.000497623
*CONN
*I *1136:A2 I *D sky130_fd_sc_hd__mux4_2
*I *1543:Q O *D sky130_fd_sc_hd__edfxtp_1
*CAP
1 *1136:A2 0.000153945
2 *1543:Q 0.000153945
3 *1136:A2 *1136:A3 7.14746e-05
4 *1136:A2 *1639:DE 7.50872e-05
5 *69:503 *1136:A2 4.31703e-05
*RES
1 *1543:Q *1136:A2 30.6391 
*END

*D_NET *642 0.000366208
*CONN
*I *1141:A2 I *D sky130_fd_sc_hd__mux4_2
*I *1544:Q O *D sky130_fd_sc_hd__edfxtp_1
*CAP
1 *1141:A2 0.000131156
2 *1544:Q 0.000131156
3 *1141:A2 *1141:A3 2.48716e-05
4 *1141:A2 *856:168 1.43439e-05
5 *1141:A2 *875:230 6.46815e-05
*RES
1 *1544:Q *1141:A2 30.0845 
*END

*D_NET *643 0.0011657
*CONN
*I *1146:A2 I *D sky130_fd_sc_hd__mux4_2
*I *1545:Q O *D sky130_fd_sc_hd__edfxtp_1
*CAP
1 *1146:A2 0.000517764
2 *1545:Q 0.000517764
3 *1146:A2 *1000:B 0
4 *1146:A2 *1146:A3 7.30105e-05
5 *1146:A2 *864:20 0
6 *1146:A2 *864:34 0
7 *1641:D *1146:A2 3.17089e-05
8 *126:50 *1146:A2 2.54522e-05
*RES
1 *1545:Q *1146:A2 39.8818 
*END

*D_NET *644 0.000926557
*CONN
*I *1151:A2 I *D sky130_fd_sc_hd__mux4_2
*I *1546:Q O *D sky130_fd_sc_hd__edfxtp_1
*CAP
1 *1151:A2 0.000463279
2 *1546:Q 0.000463279
3 *1151:A2 *856:8 0
4 *127:114 *1151:A2 0
5 *127:118 *1151:A2 0
*RES
1 *1546:Q *1151:A2 38.3601 
*END

*D_NET *645 0.00195971
*CONN
*I *1016:A2 I *D sky130_fd_sc_hd__mux4_2
*I *1519:Q O *D sky130_fd_sc_hd__edfxtp_1
*CAP
1 *1016:A2 0.000793065
2 *1519:Q 0.000793065
3 *1016:A2 *1016:S0 8.23577e-05
4 *1016:A0 *1016:A2 2.65349e-05
5 *1016:A1 *1016:A2 4.67839e-05
6 *1583:DE *1016:A2 1.35449e-05
7 *69:442 *1016:A2 7.78924e-05
8 *69:461 *1016:A2 3.73375e-05
9 *126:35 *1016:A2 8.91253e-05
*RES
1 *1519:Q *1016:A2 44.302 
*END

*D_NET *646 0.00182903
*CONN
*I *1156:A2 I *D sky130_fd_sc_hd__mux4_2
*I *1547:Q O *D sky130_fd_sc_hd__edfxtp_1
*CAP
1 *1156:A2 0.00082888
2 *1547:Q 0.00082888
3 *69:57 *1156:A2 0
4 *128:46 *1156:A2 0
5 *553:14 *1156:A2 0.000171273
*RES
1 *1547:Q *1156:A2 41.0022 
*END

*D_NET *647 0.00143516
*CONN
*I *1161:A2 I *D sky130_fd_sc_hd__mux4_2
*I *1548:Q O *D sky130_fd_sc_hd__edfxtp_1
*CAP
1 *1161:A2 0.000283321
2 *1548:Q 0.000283321
3 *1161:A2 *860:48 0.000411585
4 *1161:A2 *860:58 0.000144659
5 *1161:A2 *871:105 3.55422e-05
6 *1161:A2 *879:81 0.000125243
7 *1420:D *1161:A2 0.000151494
*RES
1 *1548:Q *1161:A2 38.7754 
*END

*D_NET *648 0.00279821
*CONN
*I *1021:A2 I *D sky130_fd_sc_hd__mux4_2
*I *1520:Q O *D sky130_fd_sc_hd__edfxtp_1
*CAP
1 *1021:A2 0.0010504
2 *1520:Q 0.0010504
3 *1021:A2 *858:16 0
4 *1021:A0 *1021:A2 0.000525989
5 *1021:A1 *1021:A2 0.00017142
6 *1021:S1 *1021:A2 0
*RES
1 *1520:Q *1021:A2 49.8913 
*END

*D_NET *649 0.00039132
*CONN
*I *1026:A2 I *D sky130_fd_sc_hd__mux4_2
*I *1521:Q O *D sky130_fd_sc_hd__edfxtp_1
*CAP
1 *1026:A2 0.00019566
2 *1521:Q 0.00019566
*RES
1 *1521:Q *1026:A2 22.8266 
*END

*D_NET *650 0.000711353
*CONN
*I *1031:A2 I *D sky130_fd_sc_hd__mux4_2
*I *1522:Q O *D sky130_fd_sc_hd__edfxtp_1
*CAP
1 *1031:A2 0.000355677
2 *1522:Q 0.000355677
*RES
1 *1522:Q *1031:A2 25.5996 
*END

*D_NET *651 0.00297829
*CONN
*I *1036:A2 I *D sky130_fd_sc_hd__mux4_2
*I *1523:Q O *D sky130_fd_sc_hd__edfxtp_1
*CAP
1 *1036:A2 0.00101496
2 *1523:Q 0.00101496
3 *1036:A2 *1035:S0 1.2693e-05
4 *1036:A2 *1035:S1 0
5 *1036:A2 *1352:C 0.000719853
6 *1036:A2 *881:121 0
7 *1036:A2 *881:123 0
8 *1036:A2 *882:44 0.000134063
9 *1036:A0 *1036:A2 5.41227e-05
10 *541:16 *1036:A2 2.7631e-05
*RES
1 *1523:Q *1036:A2 46.9607 
*END

*D_NET *652 0.00135934
*CONN
*I *1041:A2 I *D sky130_fd_sc_hd__mux4_2
*I *1524:Q O *D sky130_fd_sc_hd__edfxtp_1
*CAP
1 *1041:A2 0.000557929
2 *1524:Q 0.000557929
3 *1041:A2 *856:22 7.33021e-06
4 *1041:A2 *898:66 0.000236148
5 *69:47 *1041:A2 0
*RES
1 *1524:Q *1041:A2 42.6492 
*END

*D_NET *653 0.00224985
*CONN
*I *1046:A2 I *D sky130_fd_sc_hd__mux4_2
*I *1525:Q O *D sky130_fd_sc_hd__edfxtp_1
*CAP
1 *1046:A2 0.000826318
2 *1525:Q 0.000826318
3 *1046:A2 *881:482 0.000203756
4 *1046:A0 *1046:A2 6.3657e-05
5 *464:26 *1046:A2 0.0003298
*RES
1 *1525:Q *1046:A2 44.6887 
*END

*D_NET *654 0.000457013
*CONN
*I *1051:A2 I *D sky130_fd_sc_hd__mux4_2
*I *1526:Q O *D sky130_fd_sc_hd__edfxtp_1
*CAP
1 *1051:A2 0.000169424
2 *1526:Q 0.000169424
3 *1051:A2 *1051:A3 0.000118166
*RES
1 *1526:Q *1051:A2 22.8266 
*END

*D_NET *655 0.000345692
*CONN
*I *1006:A3 I *D sky130_fd_sc_hd__mux4_2
*I *1581:Q O *D sky130_fd_sc_hd__edfxtp_1
*CAP
1 *1006:A3 7.50183e-05
2 *1581:Q 7.50183e-05
3 *1006:A3 *1005:S1 1.07248e-05
4 *1006:A3 *1389:DE 9.96342e-05
5 *1006:A3 *881:216 8.52968e-05
*RES
1 *1581:Q *1006:A3 29.7764 
*END

*D_NET *656 0.00101718
*CONN
*I *1056:A3 I *D sky130_fd_sc_hd__mux4_2
*I *1591:Q O *D sky130_fd_sc_hd__edfxtp_1
*CAP
1 *1056:A3 0.000466612
2 *1591:Q 0.000466612
3 *1056:A1 *1056:A3 0
4 *1057:A0 *1056:A3 0
5 *69:41 *1056:A3 6.27782e-05
6 *419:16 *1056:A3 0
7 *427:10 *1056:A3 2.11774e-05
*RES
1 *1591:Q *1056:A3 37.6984 
*END

*D_NET *657 0.000318919
*CONN
*I *1061:A3 I *D sky130_fd_sc_hd__mux4_2
*I *1592:Q O *D sky130_fd_sc_hd__edfxtp_1
*CAP
1 *1061:A3 0.000101729
2 *1592:Q 0.000101729
3 *1061:A3 *875:166 1.94236e-05
4 *1061:A3 *881:121 9.60366e-05
5 *1061:A3 *882:44 0
*RES
1 *1592:Q *1061:A3 29.7764 
*END

*D_NET *658 0.000646272
*CONN
*I *1066:A3 I *D sky130_fd_sc_hd__mux4_2
*I *1593:Q O *D sky130_fd_sc_hd__edfxtp_1
*CAP
1 *1066:A3 0.000302641
2 *1593:Q 0.000302641
3 *1066:A3 *860:58 3.26247e-05
4 *1066:A2 *1066:A3 8.36586e-06
*RES
1 *1593:Q *1066:A3 32.5494 
*END

*D_NET *659 0.00168699
*CONN
*I *1071:A3 I *D sky130_fd_sc_hd__mux4_2
*I *1594:Q O *D sky130_fd_sc_hd__edfxtp_1
*CAP
1 *1071:A3 0.000674294
2 *1594:Q 0.000674294
3 *1071:A0 *1071:A3 0.000248462
4 *1071:A1 *1071:A3 0
5 *484:14 *1071:A3 8.99383e-05
*RES
1 *1594:Q *1071:A3 39.3947 
*END

*D_NET *660 0.00205574
*CONN
*I *1076:A3 I *D sky130_fd_sc_hd__mux4_2
*I *1595:Q O *D sky130_fd_sc_hd__edfxtp_1
*CAP
1 *1076:A3 0.000845224
2 *1595:Q 0.000845224
3 *1076:A0 *1076:A3 6.3657e-05
4 *1076:A1 *1076:A3 0.000189916
5 *488:14 *1076:A3 0.000111719
*RES
1 *1595:Q *1076:A3 43.826 
*END

*D_NET *661 0.00183131
*CONN
*I *1081:A3 I *D sky130_fd_sc_hd__mux4_2
*I *1596:Q O *D sky130_fd_sc_hd__edfxtp_1
*CAP
1 *1081:A3 0.000855397
2 *1596:Q 0.000855397
3 *1081:A1 *1081:A3 0
4 *1081:A2 *1081:A3 9.88052e-05
5 *1180:A *1081:A3 0
6 *1660:D *1081:A3 2.17133e-05
7 *423:104 *1081:A3 0
*RES
1 *1596:Q *1081:A3 42.248 
*END

*D_NET *662 0.00109882
*CONN
*I *1086:A3 I *D sky130_fd_sc_hd__mux4_2
*I *1597:Q O *D sky130_fd_sc_hd__edfxtp_1
*CAP
1 *1086:A3 0.00043695
2 *1597:Q 0.00043695
3 *1086:A3 *1627:DE 0.000171315
4 *1086:A3 *864:92 4.0508e-05
5 *1086:A1 *1086:A3 0
6 *1087:A0 *1086:A3 1.30977e-05
*RES
1 *1597:Q *1086:A3 38.0842 
*END

*D_NET *663 0.000301996
*CONN
*I *1091:A3 I *D sky130_fd_sc_hd__mux4_2
*I *1598:Q O *D sky130_fd_sc_hd__edfxtp_1
*CAP
1 *1091:A3 8.00841e-05
2 *1598:Q 8.00841e-05
3 *1091:A3 *859:77 0.000101998
4 *1091:A3 *881:259 3.98296e-05
*RES
1 *1598:Q *1091:A3 29.7764 
*END

*D_NET *664 0.000492108
*CONN
*I *1096:A3 I *D sky130_fd_sc_hd__mux4_2
*I *1599:Q O *D sky130_fd_sc_hd__edfxtp_1
*CAP
1 *1096:A3 0.000123199
2 *1599:Q 0.000123199
3 *10:56 *1096:A3 0.000103002
4 *69:55 *1096:A3 0.000142707
*RES
1 *1599:Q *1096:A3 31.1615 
*END

*D_NET *665 0.00138861
*CONN
*I *1101:A3 I *D sky130_fd_sc_hd__mux4_2
*I *1600:Q O *D sky130_fd_sc_hd__edfxtp_1
*CAP
1 *1101:A3 0.000467509
2 *1600:Q 0.000467509
3 *1101:A3 *881:111 0.000453593
4 *1101:A3 *882:26 0
*RES
1 *1600:Q *1101:A3 38.6388 
*END

*D_NET *666 0.00121719
*CONN
*I *1011:A3 I *D sky130_fd_sc_hd__mux4_2
*I *1582:Q O *D sky130_fd_sc_hd__edfxtp_1
*CAP
1 *1011:A3 0.000319132
2 *1582:Q 0.000319132
3 *69:220 *1011:A3 0.000578928
4 *423:65 *1011:A3 0
*RES
1 *1582:Q *1011:A3 38.0814 
*END

*D_NET *667 0.000755998
*CONN
*I *1106:A3 I *D sky130_fd_sc_hd__mux4_2
*I *1601:Q O *D sky130_fd_sc_hd__edfxtp_1
*CAP
1 *1106:A3 0.00033634
2 *1601:Q 0.00033634
3 *1106:A3 *860:103 0
4 *1106:A3 *904:147 5.70692e-05
5 *1106:A2 *1106:A3 7.09666e-06
6 *1409:D *1106:A3 1.91516e-05
*RES
1 *1601:Q *1106:A3 33.104 
*END

*D_NET *668 0.000660643
*CONN
*I *1111:A3 I *D sky130_fd_sc_hd__mux4_2
*I *1602:Q O *D sky130_fd_sc_hd__edfxtp_1
*CAP
1 *1111:A3 0.000232494
2 *1602:Q 0.000232494
3 *1111:A3 *1071:S1 1.07248e-05
4 *1111:A3 *861:101 9.96342e-05
5 *1111:A3 *881:486 8.52968e-05
*RES
1 *1602:Q *1111:A3 31.9948 
*END

*D_NET *669 0.00196054
*CONN
*I *1116:A3 I *D sky130_fd_sc_hd__mux4_2
*I *1603:Q O *D sky130_fd_sc_hd__edfxtp_1
*CAP
1 *1116:A3 0.000495352
2 *1603:Q 0.000495352
3 *1116:A3 *859:12 3.70431e-05
4 *1116:A3 *881:117 0.000472013
5 *1116:A3 *882:40 0.000106324
6 *1462:DE *1116:A3 0.000354455
*RES
1 *1603:Q *1116:A3 40.8572 
*END

*D_NET *670 0.00192683
*CONN
*I *1121:A3 I *D sky130_fd_sc_hd__mux4_2
*I *1604:Q O *D sky130_fd_sc_hd__edfxtp_1
*CAP
1 *1121:A3 0.000656471
2 *1604:Q 0.000656471
3 *1121:A3 *1412:CLK 7.14746e-05
4 *1121:A3 *856:223 1.5962e-05
5 *1121:A3 *860:103 0.000308653
6 *1106:S1 *1121:A3 0.000117376
7 *1121:A2 *1121:A3 6.3657e-05
8 *1121:S0 *1121:A3 3.67708e-05
9 *13:13 *1121:A3 0
10 *13:28 *1121:A3 0
11 *418:142 *1121:A3 0
*RES
1 *1604:Q *1121:A3 46.2822 
*END

*D_NET *671 0.00106257
*CONN
*I *1126:A3 I *D sky130_fd_sc_hd__mux4_2
*I *1605:Q O *D sky130_fd_sc_hd__edfxtp_1
*CAP
1 *1126:A3 0.000270435
2 *1605:Q 0.000270435
3 *1126:A3 *881:86 0.000169733
4 *1126:A3 *881:92 6.64392e-05
5 *1126:A1 *1126:A3 0.000285532
6 *1126:A2 *1126:A3 0
*RES
1 *1605:Q *1126:A3 35.4856 
*END

*D_NET *672 0.00105579
*CONN
*I *1131:A3 I *D sky130_fd_sc_hd__mux4_2
*I *1606:Q O *D sky130_fd_sc_hd__edfxtp_1
*CAP
1 *1131:A3 0.000442184
2 *1606:Q 0.000442184
3 *1131:A3 *1131:S0 0
4 *1131:A3 *861:44 3.77799e-05
5 *1131:A3 *878:129 0.000133638
6 *1131:A1 *1131:A3 0
7 *1414:D *1131:A3 0
*RES
1 *1606:Q *1131:A3 36.7019 
*END

*D_NET *673 0.00180641
*CONN
*I *1136:A3 I *D sky130_fd_sc_hd__mux4_2
*I *1607:Q O *D sky130_fd_sc_hd__edfxtp_1
*CAP
1 *1136:A3 0.000817411
2 *1607:Q 0.000817411
3 *1136:A3 *1639:DE 0.000100108
4 *1136:A0 *1136:A3 0
5 *1136:A2 *1136:A3 7.14746e-05
*RES
1 *1607:Q *1136:A3 41.9721 
*END

*D_NET *674 0.000964682
*CONN
*I *1141:A3 I *D sky130_fd_sc_hd__mux4_2
*I *1608:Q O *D sky130_fd_sc_hd__edfxtp_1
*CAP
1 *1141:A3 0.000469905
2 *1608:Q 0.000469905
3 *1141:A3 *867:141 0
4 *1141:A2 *1141:A3 2.48716e-05
*RES
1 *1608:Q *1141:A3 36.2206 
*END

*D_NET *675 0.000706165
*CONN
*I *1146:A3 I *D sky130_fd_sc_hd__mux4_2
*I *1609:Q O *D sky130_fd_sc_hd__edfxtp_1
*CAP
1 *1146:A3 0.000265086
2 *1609:Q 0.000265086
3 *1146:A3 *864:20 4.4147e-05
4 *1146:A2 *1146:A3 7.30105e-05
5 *1146:S1 *1146:A3 5.12201e-05
6 *427:333 *1146:A3 7.61533e-06
*RES
1 *1609:Q *1146:A3 34.2076 
*END

*D_NET *676 0.000471938
*CONN
*I *1151:A3 I *D sky130_fd_sc_hd__mux4_2
*I *1610:Q O *D sky130_fd_sc_hd__edfxtp_1
*CAP
1 *1151:A3 0.000162406
2 *1610:Q 0.000162406
3 *1151:A3 *1151:S1 4.59911e-05
4 *1151:A3 *856:8 0
5 *1151:A3 *881:14 0.000101135
*RES
1 *1610:Q *1151:A3 31.1615 
*END

*D_NET *677 0.00198136
*CONN
*I *1016:A3 I *D sky130_fd_sc_hd__mux4_2
*I *1583:Q O *D sky130_fd_sc_hd__edfxtp_1
*CAP
1 *1016:A3 0.000781401
2 *1583:Q 0.000781401
3 *1016:A3 *1391:DE 8.00909e-05
4 *1016:A3 *861:13 0.000133063
5 *1391:D *1016:A3 3.10982e-05
6 *1583:D *1016:A3 0.00014142
7 *1583:DE *1016:A3 3.28798e-05
*RES
1 *1583:Q *1016:A3 41.2809 
*END

*D_NET *678 0.00036911
*CONN
*I *1156:A3 I *D sky130_fd_sc_hd__mux4_2
*I *1611:Q O *D sky130_fd_sc_hd__edfxtp_1
*CAP
1 *1156:A3 0.000111537
2 *1611:Q 0.000111537
3 *69:65 *1156:A3 0.000146035
4 *128:56 *1156:A3 0
*RES
1 *1611:Q *1156:A3 30.6069 
*END

*D_NET *679 0.000463217
*CONN
*I *1161:A3 I *D sky130_fd_sc_hd__mux4_2
*I *1612:Q O *D sky130_fd_sc_hd__edfxtp_1
*CAP
1 *1161:A3 0.000197263
2 *1612:Q 0.000197263
3 *1161:A3 *1161:S0 0
4 *1161:A3 *860:48 6.8691e-05
*RES
1 *1612:Q *1161:A3 31.7161 
*END

*D_NET *680 0.000438297
*CONN
*I *1021:A3 I *D sky130_fd_sc_hd__mux4_2
*I *1584:Q O *D sky130_fd_sc_hd__edfxtp_1
*CAP
1 *1021:A3 0.000175362
2 *1584:Q 0.000175362
3 *1021:A3 *874:244 8.75727e-05
4 *1021:A1 *1021:A3 0
5 *1021:S0 *1021:A3 0
*RES
1 *1584:Q *1021:A3 31.1615 
*END

*D_NET *681 0.00121944
*CONN
*I *1026:A3 I *D sky130_fd_sc_hd__mux4_2
*I *1585:Q O *D sky130_fd_sc_hd__edfxtp_1
*CAP
1 *1026:A3 0.00048137
2 *1585:Q 0.00048137
3 *1027:A0 *1026:A3 1.15904e-05
4 *19:83 *1026:A3 0.000245106
*RES
1 *1585:Q *1026:A3 36.9806 
*END

*D_NET *682 0.00175711
*CONN
*I *1031:A3 I *D sky130_fd_sc_hd__mux4_2
*I *1586:Q O *D sky130_fd_sc_hd__edfxtp_1
*CAP
1 *1031:A3 0.000849215
2 *1586:Q 0.000849215
3 *1031:A3 *1660:DE 1.28704e-05
4 *1031:A3 *858:219 4.58124e-05
5 *1458:D *1031:A3 0
*RES
1 *1586:Q *1031:A3 41.4175 
*END

*D_NET *683 0.00191371
*CONN
*I *1036:A3 I *D sky130_fd_sc_hd__mux4_2
*I *1587:Q O *D sky130_fd_sc_hd__edfxtp_1
*CAP
1 *1036:A3 0.000418662
2 *1587:Q 0.000418662
3 *1036:A3 *978:C 0.000242834
4 *1036:A3 *1587:DE 0.000361036
5 *978:A *1036:A3 0.000139985
6 *1036:A0 *1036:A3 0.000217937
7 *1395:D *1036:A3 0.000114594
*RES
1 *1587:Q *1036:A3 33.0024 
*END

*D_NET *684 0.000397476
*CONN
*I *1041:A3 I *D sky130_fd_sc_hd__mux4_2
*I *1588:Q O *D sky130_fd_sc_hd__edfxtp_1
*CAP
1 *1041:A3 0.000103048
2 *1588:Q 0.000103048
3 *1041:A3 *873:42 3.98869e-05
4 *69:53 *1041:A3 0.000151494
*RES
1 *1588:Q *1041:A3 30.6069 
*END

*D_NET *685 0.00190729
*CONN
*I *1046:A3 I *D sky130_fd_sc_hd__mux4_2
*I *1589:Q O *D sky130_fd_sc_hd__edfxtp_1
*CAP
1 *1046:A3 0.000567114
2 *1589:Q 0.000567114
3 *1046:A3 *861:99 0.000101148
4 *1046:A3 *861:101 0.000630467
5 *1046:A0 *1046:A3 0
6 *464:26 *1046:A3 4.14448e-05
*RES
1 *1589:Q *1046:A3 43.346 
*END

*D_NET *686 0.00182269
*CONN
*I *1051:A3 I *D sky130_fd_sc_hd__mux4_2
*I *1590:Q O *D sky130_fd_sc_hd__edfxtp_1
*CAP
1 *1051:A3 0.000776363
2 *1590:Q 0.000776363
3 *1051:A3 *981:C 2.652e-05
4 *1051:A3 *1398:CLK 0.000125274
5 *1051:A2 *1051:A3 0.000118166
6 *32:59 *1051:A3 0
*RES
1 *1590:Q *1051:A3 40.0915 
*END

*D_NET *687 0.00266183
*CONN
*I *1005:A0 I *D sky130_fd_sc_hd__mux4_2
*I *1549:Q O *D sky130_fd_sc_hd__edfxtp_1
*CAP
1 *1005:A0 0.00133092
2 *1549:Q 0.00133092
3 *1005:A0 *1005:A3 0
*RES
1 *1549:Q *1005:A0 49.8703 
*END

*D_NET *688 0.000877636
*CONN
*I *1055:A0 I *D sky130_fd_sc_hd__mux4_2
*I *1559:Q O *D sky130_fd_sc_hd__edfxtp_1
*CAP
1 *1055:A0 0.000413557
2 *1559:Q 0.000413557
3 *1055:A0 *874:28 1.6352e-05
4 *1055:A0 *903:16 3.41693e-05
*RES
1 *1559:Q *1055:A0 33.798 
*END

*D_NET *689 0.000359469
*CONN
*I *1060:A0 I *D sky130_fd_sc_hd__mux4_2
*I *1560:Q O *D sky130_fd_sc_hd__edfxtp_1
*CAP
1 *1060:A0 0.000176076
2 *1560:Q 0.000176076
3 *1060:A0 *1060:A1 0
4 *1060:A0 *881:117 0
5 *1060:A0 *881:119 0
6 *418:207 *1060:A0 7.31677e-06
*RES
1 *1560:Q *1060:A0 31.0221 
*END

*D_NET *690 0.00162987
*CONN
*I *1065:A0 I *D sky130_fd_sc_hd__mux4_2
*I *1561:Q O *D sky130_fd_sc_hd__edfxtp_1
*CAP
1 *1065:A0 0.000468588
2 *1561:Q 0.000468588
3 *1065:A0 *1085:S0 0.000346348
4 *418:461 *1065:A0 0.000346348
*RES
1 *1561:Q *1065:A0 41.6934 
*END

*D_NET *691 0.00069762
*CONN
*I *1070:A0 I *D sky130_fd_sc_hd__mux4_2
*I *1562:Q O *D sky130_fd_sc_hd__edfxtp_1
*CAP
1 *1070:A0 0.000253115
2 *1562:Q 0.000253115
3 *1070:A0 *1626:CLK 7.60183e-05
4 *1070:A0 *890:282 0.000115371
*RES
1 *1562:Q *1070:A0 32.1341 
*END

*D_NET *692 0.00239902
*CONN
*I *1075:A0 I *D sky130_fd_sc_hd__mux4_2
*I *1563:Q O *D sky130_fd_sc_hd__edfxtp_1
*CAP
1 *1075:A0 0.000586244
2 *1563:Q 0.000586244
3 *1075:A0 *986:C 0.000370695
4 *1075:A0 *856:212 0.000162993
5 *1075:A0 *857:209 1.5714e-05
6 *1075:A0 *882:304 2.85924e-05
7 *986:A *1075:A0 0.000313361
8 *1531:D *1075:A0 0.000139817
9 *1627:D *1075:A0 2.47744e-05
10 *6:23 *1075:A0 0
11 *427:530 *1075:A0 6.87762e-05
12 *487:14 *1075:A0 0
13 *489:12 *1075:A0 0.000101812
*RES
1 *1563:Q *1075:A0 45.943 
*END

*D_NET *693 0.000200318
*CONN
*I *1080:A0 I *D sky130_fd_sc_hd__mux4_2
*I *1564:Q O *D sky130_fd_sc_hd__edfxtp_1
*CAP
1 *1080:A0 9.87004e-05
2 *1564:Q 9.87004e-05
3 *418:112 *1080:A0 2.91706e-06
*RES
1 *1564:Q *1080:A0 29.3611 
*END

*D_NET *694 0.00141253
*CONN
*I *1085:A0 I *D sky130_fd_sc_hd__mux4_2
*I *1565:Q O *D sky130_fd_sc_hd__edfxtp_1
*CAP
1 *1085:A0 0.000535498
2 *1565:Q 0.000535498
3 *1085:A0 *1181:B 5.43993e-06
4 *1085:A0 *881:433 0.000180515
5 *8:19 *1085:A0 0.000127886
6 *8:74 *1085:A0 2.7694e-05
7 *465:34 *1085:A0 0
*RES
1 *1565:Q *1085:A0 39.3356 
*END

*D_NET *695 0.00172243
*CONN
*I *1090:A0 I *D sky130_fd_sc_hd__mux4_2
*I *1566:Q O *D sky130_fd_sc_hd__edfxtp_1
*CAP
1 *1090:A0 0.000642543
2 *1566:Q 0.000642543
3 *1090:A0 *1090:S1 0
4 *1090:A0 *862:80 8.69374e-05
5 *1092:A1 *1090:A0 0.00035041
*RES
1 *1566:Q *1090:A0 44.313 
*END

*D_NET *696 0.00117553
*CONN
*I *1095:A0 I *D sky130_fd_sc_hd__mux4_2
*I *1567:Q O *D sky130_fd_sc_hd__edfxtp_1
*CAP
1 *1095:A0 0.000389754
2 *1567:Q 0.000389754
3 *1095:A0 *1183:B 0.000175837
4 *1095:A0 *2288:A 0.000165394
5 *1095:A0 *865:168 1.47085e-06
6 *1155:S1 *1095:A0 5.33233e-05
*RES
1 *1567:Q *1095:A0 37.4708 
*END

*D_NET *697 0.000489215
*CONN
*I *1100:A0 I *D sky130_fd_sc_hd__mux4_2
*I *1568:Q O *D sky130_fd_sc_hd__edfxtp_1
*CAP
1 *1100:A0 0.000174766
2 *1568:Q 0.000174766
3 *1100:A0 *1637:DE 8.12843e-05
4 *1100:A0 *858:337 2.9199e-05
5 *1102:A1 *1100:A0 2.9199e-05
*RES
1 *1568:Q *1100:A0 31.0249 
*END

*D_NET *698 0.000433694
*CONN
*I *1010:A0 I *D sky130_fd_sc_hd__mux4_2
*I *1550:Q O *D sky130_fd_sc_hd__edfxtp_1
*CAP
1 *1010:A0 0.000209693
2 *1550:Q 0.000209693
3 *1010:A0 *1010:A1 0
4 *1010:A0 *880:51 1.43086e-05
5 *424:272 *1010:A0 0
*RES
1 *1550:Q *1010:A0 31.5767 
*END

*D_NET *699 0.00198874
*CONN
*I *1105:A0 I *D sky130_fd_sc_hd__mux4_2
*I *1569:Q O *D sky130_fd_sc_hd__edfxtp_1
*CAP
1 *1105:A0 0.000601497
2 *1569:Q 0.000601497
3 *1105:A0 *1105:A1 0.000357911
4 *1105:A0 *1105:A3 0.000107496
5 *1105:A0 *856:130 0.0001805
6 *1105:A0 *858:34 0
7 *1105:A0 *865:218 0.000139838
*RES
1 *1569:Q *1105:A0 43.9356 
*END

*D_NET *700 0.00100331
*CONN
*I *1110:A0 I *D sky130_fd_sc_hd__mux4_2
*I *1570:Q O *D sky130_fd_sc_hd__edfxtp_1
*CAP
1 *1110:A0 0.000334409
2 *1570:Q 0.000334409
3 *1110:A0 *1110:A1 1.07248e-05
4 *1110:A0 *1110:S0 2.32744e-05
5 *1110:A0 *870:98 0.000151701
6 *1110:A0 *878:174 5.3627e-06
7 *465:12 *1110:A0 0.000100953
8 *517:10 *1110:A0 4.24742e-05
*RES
1 *1570:Q *1110:A0 36.7314 
*END

*D_NET *701 0.00119207
*CONN
*I *1115:A0 I *D sky130_fd_sc_hd__mux4_2
*I *1571:Q O *D sky130_fd_sc_hd__edfxtp_1
*CAP
1 *1115:A0 0.000324701
2 *1571:Q 0.000324701
3 *1115:A0 *1117:S 0.000542672
4 *1115:A0 *890:197 0
*RES
1 *1571:Q *1115:A0 37.2621 
*END

*D_NET *702 0.000574314
*CONN
*I *1120:A0 I *D sky130_fd_sc_hd__mux4_2
*I *1572:Q O *D sky130_fd_sc_hd__edfxtp_1
*CAP
1 *1120:A0 0.000199801
2 *1572:Q 0.000199801
3 *1120:A0 *1120:A1 0
4 *1120:A0 *1120:A3 0
5 *1122:A1 *1120:A0 2.99929e-05
6 *1203:B *1120:A0 0.00014472
*RES
1 *1572:Q *1120:A0 32.1313 
*END

*D_NET *703 0.00207776
*CONN
*I *1125:A0 I *D sky130_fd_sc_hd__mux4_2
*I *1573:Q O *D sky130_fd_sc_hd__edfxtp_1
*CAP
1 *1125:A0 0.000862561
2 *1573:Q 0.000862561
3 *1125:A0 *1125:A1 2.1203e-06
4 *1125:A0 *1125:A2 0
5 *1125:A0 *1125:S0 0.000155352
6 *1127:A1 *1125:A0 0
7 *325:14 *1125:A0 9.68417e-05
8 *418:443 *1125:A0 9.83241e-05
*RES
1 *1573:Q *1125:A0 44.876 
*END

*D_NET *704 0.00175994
*CONN
*I *1130:A0 I *D sky130_fd_sc_hd__mux4_2
*I *1574:Q O *D sky130_fd_sc_hd__edfxtp_1
*CAP
1 *1130:A0 0.000525039
2 *1574:Q 0.000525039
3 *1130:A0 *1025:S1 0.0003382
4 *1130:A0 *1132:S 0.000280966
5 *966:B *1130:A0 0
6 *27:44 *1130:A0 0
7 *418:396 *1130:A0 1.13341e-06
8 *532:16 *1130:A0 8.95604e-05
*RES
1 *1574:Q *1130:A0 39.5016 
*END

*D_NET *705 0.000466594
*CONN
*I *1135:A0 I *D sky130_fd_sc_hd__mux4_2
*I *1575:Q O *D sky130_fd_sc_hd__edfxtp_1
*CAP
1 *1135:A0 0.000233297
2 *1575:Q 0.000233297
*RES
1 *1575:Q *1135:A0 31.1937 
*END

*D_NET *706 0.00180589
*CONN
*I *1140:A0 I *D sky130_fd_sc_hd__mux4_2
*I *1576:Q O *D sky130_fd_sc_hd__edfxtp_1
*CAP
1 *1140:A0 0.000799114
2 *1576:Q 0.000799114
3 *1140:A0 *1140:A2 0.000207665
4 *1140:A0 *1278:B 0
5 *9:13 *1140:A0 0
6 *9:22 *1140:A0 0
7 *9:33 *1140:A0 0
8 *9:44 *1140:A0 0
*RES
1 *1576:Q *1140:A0 47.6322 
*END

*D_NET *707 0.000651658
*CONN
*I *1145:A0 I *D sky130_fd_sc_hd__mux4_2
*I *1577:Q O *D sky130_fd_sc_hd__edfxtp_1
*CAP
1 *1145:A0 0.000287265
2 *1577:Q 0.000287265
3 *1145:A0 *1145:A1 9.35753e-06
4 *124:226 *1145:A0 6.77702e-05
5 *545:16 *1145:A0 0
*RES
1 *1577:Q *1145:A0 33.2406 
*END

*D_NET *708 0.00042043
*CONN
*I *1150:A0 I *D sky130_fd_sc_hd__mux4_2
*I *1578:Q O *D sky130_fd_sc_hd__edfxtp_1
*CAP
1 *1150:A0 0.000156397
2 *1578:Q 0.000156397
3 *1150:A0 *881:14 2.4707e-05
4 *1152:A1 *1150:A0 2.4707e-05
5 *418:320 *1150:A0 5.82207e-05
*RES
1 *1578:Q *1150:A0 30.4703 
*END

*D_NET *709 0.000573629
*CONN
*I *1015:A0 I *D sky130_fd_sc_hd__mux4_2
*I *1551:Q O *D sky130_fd_sc_hd__edfxtp_1
*CAP
1 *1015:A0 0.000210234
2 *1551:Q 0.000210234
3 *1015:A0 *1015:A1 0
4 *1015:A0 *876:62 7.50722e-05
5 *423:331 *1015:A0 1.36007e-05
6 *423:335 *1015:A0 1.44925e-05
7 *441:10 *1015:A0 4.9996e-05
*RES
1 *1551:Q *1015:A0 32.6831 
*END

*D_NET *710 0.000511306
*CONN
*I *1155:A0 I *D sky130_fd_sc_hd__mux4_2
*I *1579:Q O *D sky130_fd_sc_hd__edfxtp_1
*CAP
1 *1155:A0 0.000202811
2 *1579:Q 0.000202811
3 *1155:A0 *857:59 1.21967e-05
4 *1155:A0 *874:81 0
5 *551:14 *1155:A0 9.34869e-05
*RES
1 *1579:Q *1155:A0 32.6831 
*END

*D_NET *711 0.00166389
*CONN
*I *1160:A0 I *D sky130_fd_sc_hd__mux4_2
*I *1580:Q O *D sky130_fd_sc_hd__edfxtp_1
*CAP
1 *1160:A0 0.00070709
2 *1580:Q 0.00070709
3 *1160:A0 *1160:A3 0.000196972
4 *1160:A0 *2293:A 0
5 *1160:A0 *880:173 0
6 *1160:A0 *889:12 0
7 *961:B *1160:A0 0
8 *1162:A1 *1160:A0 5.2737e-05
*RES
1 *1580:Q *1160:A0 45.9712 
*END

*D_NET *712 0.000200188
*CONN
*I *1020:A0 I *D sky130_fd_sc_hd__mux4_2
*I *1552:Q O *D sky130_fd_sc_hd__edfxtp_1
*CAP
1 *1020:A0 0.000100094
2 *1552:Q 0.000100094
3 *1020:A0 *1020:A3 0
*RES
1 *1552:Q *1020:A0 29.3611 
*END

*D_NET *713 0.00253047
*CONN
*I *1025:A0 I *D sky130_fd_sc_hd__mux4_2
*I *1553:Q O *D sky130_fd_sc_hd__edfxtp_1
*CAP
1 *1025:A0 0.000974974
2 *1553:Q 0.000974974
3 *1025:A0 *1265:C 0.000567967
4 *1025:A0 *883:127 1.25508e-05
*RES
1 *1553:Q *1025:A0 47.1239 
*END

*D_NET *714 0.000964156
*CONN
*I *1030:A0 I *D sky130_fd_sc_hd__mux4_2
*I *1554:Q O *D sky130_fd_sc_hd__edfxtp_1
*CAP
1 *1030:A0 0.000396112
2 *1554:Q 0.000396112
3 *1030:A0 *1030:A1 0
4 *1030:A0 *1030:A3 0
5 *1030:A0 *1266:B 0
6 *1030:A0 *894:225 8.61427e-05
7 *1537:D *1030:A0 0
8 *451:14 *1030:A0 8.57899e-05
*RES
1 *1554:Q *1030:A0 38.0814 
*END

*D_NET *715 0.000425488
*CONN
*I *1035:A0 I *D sky130_fd_sc_hd__mux4_2
*I *1555:Q O *D sky130_fd_sc_hd__edfxtp_1
*CAP
1 *1035:A0 0.000187488
2 *1555:Q 0.000187488
3 *1035:A0 *892:176 2.05191e-05
4 *1037:A1 *1035:A0 2.99929e-05
5 *20:21 *1035:A0 0
6 *457:16 *1035:A0 0
*RES
1 *1555:Q *1035:A0 31.5767 
*END

*D_NET *716 0.001721
*CONN
*I *1040:A0 I *D sky130_fd_sc_hd__mux4_2
*I *1556:Q O *D sky130_fd_sc_hd__edfxtp_1
*CAP
1 *1040:A0 0.00049868
2 *1556:Q 0.00049868
3 *1040:A0 *1040:A1 0.000133191
4 *69:187 *1040:A0 2.91621e-05
5 *69:206 *1040:A0 0.000170379
6 *424:223 *1040:A0 0.00039091
*RES
1 *1556:Q *1040:A0 36.7398 
*END

*D_NET *717 0.000235716
*CONN
*I *1045:A0 I *D sky130_fd_sc_hd__mux4_2
*I *1557:Q O *D sky130_fd_sc_hd__edfxtp_1
*CAP
1 *1045:A0 7.9849e-05
2 *1557:Q 7.9849e-05
3 *1045:A0 *870:82 7.60183e-05
*RES
1 *1557:Q *1045:A0 29.3611 
*END

*D_NET *718 0.000900521
*CONN
*I *1050:A0 I *D sky130_fd_sc_hd__mux4_2
*I *1558:Q O *D sky130_fd_sc_hd__edfxtp_1
*CAP
1 *1050:A0 0.000298201
2 *1558:Q 0.000298201
3 *1050:A0 *1050:A1 0
4 *1050:A0 *1050:S1 5.05247e-05
5 *1050:A0 *1051:S0 0
6 *1050:A0 *866:51 4.16147e-05
7 *1050:A0 *880:179 0
8 *1050:A0 *880:189 4.16097e-05
9 *1052:A1 *1050:A0 3.99031e-05
10 *469:18 *1050:A0 0.000130467
*RES
1 *1558:Q *1050:A0 36.1445 
*END

*D_NET *719 0.000906702
*CONN
*I *1005:A1 I *D sky130_fd_sc_hd__mux4_2
*I *1453:Q O *D sky130_fd_sc_hd__edfxtp_1
*CAP
1 *1005:A1 0.000397171
2 *1453:Q 0.000397171
3 *1005:A1 *1005:A2 0.000112361
*RES
1 *1453:Q *1005:A1 28.011 
*END

*D_NET *720 0.00184684
*CONN
*I *1055:A1 I *D sky130_fd_sc_hd__mux4_2
*I *1463:Q O *D sky130_fd_sc_hd__edfxtp_1
*CAP
1 *1055:A1 0.000493253
2 *1463:Q 0.000493253
3 *1055:A1 *874:28 0
4 *941:B *1055:A1 0.00011439
5 *421:67 *1055:A1 0.000281036
6 *423:28 *1055:A1 9.07298e-05
7 *423:30 *1055:A1 0.000374176
*RES
1 *1463:Q *1055:A1 39.748 
*END

*D_NET *721 0.000926877
*CONN
*I *1060:A1 I *D sky130_fd_sc_hd__mux4_2
*I *1464:Q O *D sky130_fd_sc_hd__edfxtp_1
*CAP
1 *1060:A1 0.000463438
2 *1464:Q 0.000463438
3 *1060:A1 *881:117 0
4 *1060:A0 *1060:A1 0
*RES
1 *1464:Q *1060:A1 37.2509 
*END

*D_NET *722 0.00175487
*CONN
*I *1065:A1 I *D sky130_fd_sc_hd__mux4_2
*I *1465:Q O *D sky130_fd_sc_hd__edfxtp_1
*CAP
1 *1065:A1 0.000570208
2 *1465:Q 0.000570208
3 *1065:A1 *1065:A2 0.000142774
4 *1065:A1 *1065:A3 0.000122378
5 *1065:A1 *1065:S1 0.000154145
6 *1065:A1 *858:470 4.3892e-05
7 *1065:A1 *871:125 2.08165e-05
8 *1065:A1 *890:234 0
9 *1065:A1 *890:242 0.000130445
*RES
1 *1465:Q *1065:A1 40.7529 
*END

*D_NET *723 0.00209228
*CONN
*I *1070:A1 I *D sky130_fd_sc_hd__mux4_2
*I *1466:Q O *D sky130_fd_sc_hd__edfxtp_1
*CAP
1 *1070:A1 0.000534755
2 *1466:Q 0.000534755
3 *1070:A1 *1071:S0 0.000335004
4 *1070:A1 *1530:CLK 3.97254e-05
5 *1070:A1 *870:98 3.13557e-05
6 *5:19 *1070:A1 2.04806e-05
7 *5:76 *1070:A1 5.44669e-05
8 *484:14 *1070:A1 2.41274e-06
9 *517:10 *1070:A1 0.000539325
*RES
1 *1466:Q *1070:A1 43.0701 
*END

*D_NET *724 0.000315539
*CONN
*I *1075:A1 I *D sky130_fd_sc_hd__mux4_2
*I *1467:Q O *D sky130_fd_sc_hd__edfxtp_1
*CAP
1 *1075:A1 0.000125162
2 *1467:Q 0.000125162
3 *1075:A1 *876:261 0
4 *427:536 *1075:A1 6.52156e-05
*RES
1 *1467:Q *1075:A1 30.6069 
*END

*D_NET *725 0.00040061
*CONN
*I *1080:A1 I *D sky130_fd_sc_hd__mux4_2
*I *1468:Q O *D sky130_fd_sc_hd__edfxtp_1
*CAP
1 *1080:A1 0.000200305
2 *1468:Q 0.000200305
3 *1080:S1 *1080:A1 0
*RES
1 *1468:Q *1080:A1 31.1615 
*END

*D_NET *726 0.0014921
*CONN
*I *1085:A1 I *D sky130_fd_sc_hd__mux4_2
*I *1469:Q O *D sky130_fd_sc_hd__edfxtp_1
*CAP
1 *1085:A1 0.00054802
2 *1469:Q 0.00054802
3 *1087:A1 *1085:A1 6.79574e-05
4 *8:19 *1085:A1 0
5 *8:31 *1085:A1 9.19632e-06
6 *465:34 *1085:A1 0.000298701
7 *497:18 *1085:A1 2.02035e-05
*RES
1 *1469:Q *1085:A1 38.6739 
*END

*D_NET *727 0.00132096
*CONN
*I *1090:A1 I *D sky130_fd_sc_hd__mux4_2
*I *1470:Q O *D sky130_fd_sc_hd__edfxtp_1
*CAP
1 *1090:A1 0.000507215
2 *1470:Q 0.000507215
3 *1090:A1 *1549:DE 0.000269012
4 *1090:A1 *891:103 3.75221e-05
5 *1092:A1 *1090:A1 0
*RES
1 *1470:Q *1090:A1 39.9224 
*END

*D_NET *728 0.000576133
*CONN
*I *1095:A1 I *D sky130_fd_sc_hd__mux4_2
*I *1471:Q O *D sky130_fd_sc_hd__edfxtp_1
*CAP
1 *1095:A1 0.000101908
2 *1471:Q 0.000101908
3 *1095:A1 *2288:A 0.000161451
4 *1095:A1 *873:80 1.52578e-05
5 *1095:S1 *1095:A1 0.000161453
6 *418:72 *1095:A1 3.41552e-05
*RES
1 *1471:Q *1095:A1 31.5767 
*END

*D_NET *729 0.000546993
*CONN
*I *1100:A1 I *D sky130_fd_sc_hd__mux4_2
*I *1472:Q O *D sky130_fd_sc_hd__edfxtp_1
*CAP
1 *1100:A1 0.000239461
2 *1472:Q 0.000239461
3 *1100:A1 *858:337 6.80719e-05
4 *124:62 *1100:A1 0
5 *441:10 *1100:A1 0
*RES
1 *1472:Q *1100:A1 32.2707 
*END

*D_NET *730 0.00103631
*CONN
*I *1010:A1 I *D sky130_fd_sc_hd__mux4_2
*I *1454:Q O *D sky130_fd_sc_hd__edfxtp_1
*CAP
1 *1010:A1 0.000410055
2 *1454:Q 0.000410055
3 *1010:A0 *1010:A1 0
4 *69:212 *1010:A1 4.29063e-05
5 *123:43 *1010:A1 2.14494e-05
6 *424:272 *1010:A1 0.000151841
*RES
1 *1454:Q *1010:A1 37.8055 
*END

*D_NET *731 0.00133885
*CONN
*I *1105:A1 I *D sky130_fd_sc_hd__mux4_2
*I *1473:Q O *D sky130_fd_sc_hd__edfxtp_1
*CAP
1 *1105:A1 0.000354367
2 *1473:Q 0.000354367
3 *1105:A1 *1062:S 1.80819e-05
4 *1105:A1 *1105:A3 9.39633e-05
5 *1105:A0 *1105:A1 0.000357911
6 *1107:A1 *1105:A1 2.16355e-05
7 *15:17 *1105:A1 0.000138523
*RES
1 *1473:Q *1105:A1 37.4309 
*END

*D_NET *732 0.00109749
*CONN
*I *1110:A1 I *D sky130_fd_sc_hd__mux4_2
*I *1474:Q O *D sky130_fd_sc_hd__edfxtp_1
*CAP
1 *1110:A1 0.000377215
2 *1474:Q 0.000377215
3 *1110:A1 *870:98 2.32176e-05
4 *1110:A1 *889:239 0.000204384
5 *1110:A0 *1110:A1 1.07248e-05
6 *465:12 *1110:A1 0.000104731
*RES
1 *1474:Q *1110:A1 34.7678 
*END

*D_NET *733 0.00154064
*CONN
*I *1115:A1 I *D sky130_fd_sc_hd__mux4_2
*I *1475:Q O *D sky130_fd_sc_hd__edfxtp_1
*CAP
1 *1115:A1 0.000428559
2 *1475:Q 0.000428559
3 *1115:A1 *1117:S 0.00015321
4 *1115:A1 *890:197 0.000163377
5 *1117:A1 *1115:A1 0.000213725
6 *520:14 *1115:A1 0.00015321
*RES
1 *1475:Q *1115:A1 36.7075 
*END

*D_NET *734 0.00133375
*CONN
*I *1120:A1 I *D sky130_fd_sc_hd__mux4_2
*I *1476:Q O *D sky130_fd_sc_hd__edfxtp_1
*CAP
1 *1120:A1 0.00057636
2 *1476:Q 0.00057636
3 *1120:A1 *1122:S 7.86825e-06
4 *1120:A0 *1120:A1 0
5 *1120:S1 *1120:A1 0
6 *1122:A1 *1120:A1 0
7 *424:291 *1120:A1 6.23012e-05
8 *424:297 *1120:A1 0.000110865
*RES
1 *1476:Q *1120:A1 39.4693 
*END

*D_NET *735 0.00226813
*CONN
*I *1125:A1 I *D sky130_fd_sc_hd__mux4_2
*I *1477:Q O *D sky130_fd_sc_hd__edfxtp_1
*CAP
1 *1125:A1 0.000792863
2 *1477:Q 0.000792863
3 *1125:A1 *1125:A2 0.000109421
4 *1125:A1 *1477:CLK 0.000297073
5 *1125:A1 *905:12 0
6 *1125:A0 *1125:A1 2.1203e-06
7 *17:23 *1125:A1 3.55859e-05
8 *325:14 *1125:A1 0
9 *418:431 *1125:A1 7.24126e-05
10 *418:443 *1125:A1 0.000165795
*RES
1 *1477:Q *1125:A1 44.3537 
*END

*D_NET *736 0.000857905
*CONN
*I *1130:A1 I *D sky130_fd_sc_hd__mux4_2
*I *1478:Q O *D sky130_fd_sc_hd__edfxtp_1
*CAP
1 *1130:A1 0.000307049
2 *1478:Q 0.000307049
3 *1130:A1 *1132:S 0
4 *1130:A1 *905:10 4.90558e-05
5 *1130:A1 *906:102 0.000162441
6 *1132:A1 *1130:A1 3.23107e-05
7 *121:112 *1130:A1 0
*RES
1 *1478:Q *1130:A1 35.7293 
*END

*D_NET *737 0.00107625
*CONN
*I *1135:A1 I *D sky130_fd_sc_hd__mux4_2
*I *1479:Q O *D sky130_fd_sc_hd__edfxtp_1
*CAP
1 *1135:A1 0.000391989
2 *1479:Q 0.000391989
3 *1135:A1 *1137:S 0.000196836
4 *1137:A0 *1135:A1 9.54375e-05
*RES
1 *1479:Q *1135:A1 36.1473 
*END

*D_NET *738 0.000942469
*CONN
*I *1140:A1 I *D sky130_fd_sc_hd__mux4_2
*I *1480:Q O *D sky130_fd_sc_hd__edfxtp_1
*CAP
1 *1140:A1 0.000137151
2 *1480:Q 0.000137151
3 *1140:A1 *1140:A2 0.000332412
4 *1140:A1 *1140:A3 0.000335755
*RES
1 *1480:Q *1140:A1 33.9289 
*END

*D_NET *739 0.00155305
*CONN
*I *1145:A1 I *D sky130_fd_sc_hd__mux4_2
*I *1481:Q O *D sky130_fd_sc_hd__edfxtp_1
*CAP
1 *1145:A1 0.000524675
2 *1481:Q 0.000524675
3 *1145:A1 *1130:S0 0.000212651
4 *1145:A1 *1478:CLK 0
5 *1145:A1 *906:72 6.12665e-05
6 *1145:A0 *1145:A1 9.35753e-06
7 *1147:A1 *1145:A1 0.000144695
8 *1286:A *1145:A1 7.57271e-05
9 *545:16 *1145:A1 0
*RES
1 *1481:Q *1145:A1 40.6869 
*END

*D_NET *740 0.000569728
*CONN
*I *1150:A1 I *D sky130_fd_sc_hd__mux4_2
*I *1482:Q O *D sky130_fd_sc_hd__edfxtp_1
*CAP
1 *1150:A1 0.000231135
2 *1482:Q 0.000231135
3 *1150:A1 *856:8 0
4 *1150:A1 *881:8 5.78236e-05
5 *1150:A1 *886:228 4.96348e-05
*RES
1 *1482:Q *1150:A1 32.2707 
*END

*D_NET *741 0.00134115
*CONN
*I *1015:A1 I *D sky130_fd_sc_hd__mux4_2
*I *1455:Q O *D sky130_fd_sc_hd__edfxtp_1
*CAP
1 *1015:A1 0.00056057
2 *1455:Q 0.00056057
3 *1015:A1 *1015:A2 0
4 *1015:A1 *1015:A3 9.7696e-05
5 *1015:A1 *906:64 1.43439e-05
6 *1015:A0 *1015:A1 0
7 *423:331 *1015:A1 0.000107971
8 *441:10 *1015:A1 0
*RES
1 *1455:Q *1015:A1 39.7424 
*END

*D_NET *742 0.000415938
*CONN
*I *1155:A1 I *D sky130_fd_sc_hd__mux4_2
*I *1483:Q O *D sky130_fd_sc_hd__edfxtp_1
*CAP
1 *1155:A1 0.0001833
2 *1483:Q 0.0001833
3 *1155:A1 *874:81 4.27003e-05
4 *551:14 *1155:A1 6.63824e-06
*RES
1 *1483:Q *1155:A1 30.8856 
*END

*D_NET *743 0.000978497
*CONN
*I *1160:A1 I *D sky130_fd_sc_hd__mux4_2
*I *1484:Q O *D sky130_fd_sc_hd__edfxtp_1
*CAP
1 *1160:A1 0.000227722
2 *1484:Q 0.000227722
3 *1160:A1 *1160:A2 0.000243584
4 *1160:A1 *1160:A3 0.000279468
*RES
1 *1484:Q *1160:A1 34.2076 
*END

*D_NET *744 0.000369859
*CONN
*I *1020:A1 I *D sky130_fd_sc_hd__mux4_2
*I *1456:Q O *D sky130_fd_sc_hd__edfxtp_1
*CAP
1 *1020:A1 0.000184929
2 *1456:Q 0.000184929
3 *1020:A1 *858:16 0
4 *1021:S1 *1020:A1 0
*RES
1 *1456:Q *1020:A1 31.1615 
*END

*D_NET *745 0.00187918
*CONN
*I *1025:A1 I *D sky130_fd_sc_hd__mux4_2
*I *1457:Q O *D sky130_fd_sc_hd__edfxtp_1
*CAP
1 *1025:A1 0.000598901
2 *1457:Q 0.000598901
3 *1025:A1 *1025:A2 0
4 *1025:A1 *1265:C 9.08174e-05
5 *1025:A1 *858:406 0.000117524
6 *1025:A1 *876:376 0.000149643
7 *1025:A1 *876:410 8.94467e-05
8 *1025:A1 *906:117 0.000180193
9 *417:444 *1025:A1 3.58625e-05
10 *417:461 *1025:A1 1.78895e-05
*RES
1 *1457:Q *1025:A1 45.1936 
*END

*D_NET *746 0.000511192
*CONN
*I *1030:A1 I *D sky130_fd_sc_hd__mux4_2
*I *1458:Q O *D sky130_fd_sc_hd__edfxtp_1
*CAP
1 *1030:A1 0.000127858
2 *1458:Q 0.000127858
3 *1030:A1 *1266:B 1.11039e-05
4 *1030:A1 *868:56 3.5592e-05
5 *1030:A1 *903:79 0.00014106
6 *1030:A0 *1030:A1 0
7 *1537:D *1030:A1 0
8 *451:14 *1030:A1 6.77202e-05
*RES
1 *1458:Q *1030:A1 32.1313 
*END

*D_NET *747 0.000470542
*CONN
*I *1035:A1 I *D sky130_fd_sc_hd__mux4_2
*I *1459:Q O *D sky130_fd_sc_hd__edfxtp_1
*CAP
1 *1035:A1 0.000213619
2 *1459:Q 0.000213619
3 *457:16 *1035:A1 4.3305e-05
*RES
1 *1459:Q *1035:A1 31.4402 
*END

*D_NET *748 0.00217111
*CONN
*I *1040:A1 I *D sky130_fd_sc_hd__mux4_2
*I *1460:Q O *D sky130_fd_sc_hd__edfxtp_1
*CAP
1 *1040:A1 0.000784275
2 *1460:Q 0.000784275
3 *1040:A0 *1040:A1 0.000133191
4 *26:26 *1040:A1 0
5 *69:187 *1040:A1 1.30018e-05
6 *69:206 *1040:A1 6.46815e-05
7 *418:50 *1040:A1 7.6992e-05
8 *423:36 *1040:A1 0.000314694
*RES
1 *1460:Q *1040:A1 43.2445 
*END

*D_NET *749 0.0015642
*CONN
*I *1045:A1 I *D sky130_fd_sc_hd__mux4_2
*I *1461:Q O *D sky130_fd_sc_hd__edfxtp_1
*CAP
1 *1045:A1 0.000655087
2 *1461:Q 0.000655087
3 *1045:A1 *1045:A3 0
4 *1045:A1 *878:154 7.30424e-05
5 *1045:A1 *881:379 0
6 *341:20 *1045:A1 4.33098e-06
7 *465:12 *1045:A1 0.000176652
*RES
1 *1461:Q *1045:A1 40.0295 
*END

*D_NET *750 0.000597769
*CONN
*I *1050:A1 I *D sky130_fd_sc_hd__mux4_2
*I *1462:Q O *D sky130_fd_sc_hd__edfxtp_1
*CAP
1 *1050:A1 0.000298884
2 *1462:Q 0.000298884
3 *1050:A1 *1174:C 0
4 *1050:A1 *880:179 0
5 *1050:A0 *1050:A1 0
*RES
1 *1462:Q *1050:A1 33.653 
*END

*D_NET *751 0.00227214
*CONN
*I *1005:A2 I *D sky130_fd_sc_hd__mux4_2
*I *1645:Q O *D sky130_fd_sc_hd__edfxtp_1
*CAP
1 *1005:A2 0.000980649
2 *1645:Q 0.000980649
3 *1005:A2 *1005:A3 8.36586e-06
4 *1005:A2 *1005:S0 3.30805e-05
5 *1005:A2 *1005:S1 6.57892e-05
6 *1005:A1 *1005:A2 0.000112361
7 *1007:A1 *1005:A2 6.27718e-05
8 *432:14 *1005:A2 2.84758e-05
*RES
1 *1645:Q *1005:A2 43.9468 
*END

*D_NET *752 0.00080746
*CONN
*I *1055:A2 I *D sky130_fd_sc_hd__mux4_2
*I *1655:Q O *D sky130_fd_sc_hd__edfxtp_1
*CAP
1 *1055:A2 0.00025242
2 *1655:Q 0.00025242
3 *1055:S0 *1055:A2 0.000119502
4 *1056:S0 *1055:A2 1.99543e-06
5 *68:81 *1055:A2 0.000118351
6 *471:18 *1055:A2 6.27718e-05
*RES
1 *1655:Q *1055:A2 25.5996 
*END

*D_NET *753 0.00120446
*CONN
*I *1060:A2 I *D sky130_fd_sc_hd__mux4_2
*I *1656:Q O *D sky130_fd_sc_hd__edfxtp_1
*CAP
1 *1060:A2 0.000411799
2 *1656:Q 0.000411799
3 *1060:A2 *857:160 0.000380865
*RES
1 *1656:Q *1060:A2 25.5996 
*END

*D_NET *754 0.00159229
*CONN
*I *1065:A2 I *D sky130_fd_sc_hd__mux4_2
*I *1657:Q O *D sky130_fd_sc_hd__edfxtp_1
*CAP
1 *1065:A2 0.00063321
2 *1657:Q 0.00063321
3 *1065:A2 *858:470 0
4 *1065:A2 *890:234 0.000183099
5 *1065:A1 *1065:A2 0.000142774
*RES
1 *1657:Q *1065:A2 38.6472 
*END

*D_NET *755 0.000525611
*CONN
*I *1070:A2 I *D sky130_fd_sc_hd__mux4_2
*I *1658:Q O *D sky130_fd_sc_hd__edfxtp_1
*CAP
1 *1070:A2 0.000184252
2 *1658:Q 0.000184252
3 *1070:A2 *1070:S1 0.000157107
*RES
1 *1658:Q *1070:A2 22.8266 
*END

*D_NET *756 0.00128377
*CONN
*I *1075:A2 I *D sky130_fd_sc_hd__mux4_2
*I *1659:Q O *D sky130_fd_sc_hd__edfxtp_1
*CAP
1 *1075:A2 0.000473368
2 *1659:Q 0.000473368
3 *1075:A2 *1075:A3 0.000150291
4 *1075:A2 *858:497 0
5 *1075:A2 *866:63 0.000186745
*RES
1 *1659:Q *1075:A2 39.33 
*END

*D_NET *757 0.00166387
*CONN
*I *1080:A2 I *D sky130_fd_sc_hd__mux4_2
*I *1660:Q O *D sky130_fd_sc_hd__edfxtp_1
*CAP
1 *1080:A2 0.000561345
2 *1660:Q 0.000561345
3 *1080:A2 *1080:A3 6.62622e-05
4 *1080:A2 *865:102 1.29348e-05
5 *1080:A2 *894:41 1.28351e-05
6 *1080:A2 *894:98 0.000254509
7 *418:97 *1080:A2 0.000194641
*RES
1 *1660:Q *1080:A2 39.3384 
*END

*D_NET *758 0.00041504
*CONN
*I *1085:A2 I *D sky130_fd_sc_hd__mux4_2
*I *1661:Q O *D sky130_fd_sc_hd__edfxtp_1
*CAP
1 *1085:A2 0.00016698
2 *1661:Q 0.00016698
3 *1085:A2 *1085:S0 8.10802e-05
*RES
1 *1661:Q *1085:A2 22.8266 
*END

*D_NET *759 0.000412437
*CONN
*I *1090:A2 I *D sky130_fd_sc_hd__mux4_2
*I *1662:Q O *D sky130_fd_sc_hd__edfxtp_1
*CAP
1 *1090:A2 0.000156445
2 *1662:Q 0.000156445
3 *1090:A2 *1090:A3 1.79672e-05
4 *1090:A2 *1090:S0 7.50722e-05
5 *1090:A2 *874:488 6.50657e-06
*RES
1 *1662:Q *1090:A2 30.4703 
*END

*D_NET *760 0.000579942
*CONN
*I *1095:A2 I *D sky130_fd_sc_hd__mux4_2
*I *1663:Q O *D sky130_fd_sc_hd__edfxtp_1
*CAP
1 *1095:A2 0.000249984
2 *1663:Q 0.000249984
3 *1095:A2 *873:55 0
4 *1155:S0 *1095:A2 2.33654e-05
5 *123:28 *1095:A2 8.11886e-06
6 *424:67 *1095:A2 4.84905e-05
*RES
1 *1663:Q *1095:A2 32.6859 
*END

*D_NET *761 0.00133171
*CONN
*I *1100:A2 I *D sky130_fd_sc_hd__mux4_2
*I *1664:Q O *D sky130_fd_sc_hd__edfxtp_1
*CAP
1 *1100:A2 0.000441475
2 *1664:Q 0.000441475
3 *1100:A2 *1100:S1 0
4 *1100:A2 *858:333 0.000104348
5 *1100:A2 *882:20 5.6047e-05
6 *124:62 *1100:A2 0.000288368
*RES
1 *1664:Q *1100:A2 38.2236 
*END

*D_NET *762 0.00139797
*CONN
*I *1010:A2 I *D sky130_fd_sc_hd__mux4_2
*I *1646:Q O *D sky130_fd_sc_hd__edfxtp_1
*CAP
1 *1010:A2 0.000413739
2 *1646:Q 0.000413739
3 *1010:A2 *858:157 0.000570491
*RES
1 *1646:Q *1010:A2 25.5996 
*END

*D_NET *763 0.00304225
*CONN
*I *1105:A2 I *D sky130_fd_sc_hd__mux4_2
*I *1377:Q O *D sky130_fd_sc_hd__edfxtp_1
*CAP
1 *1105:A2 7.15152e-05
2 *1377:Q 0.000849719
3 *763:20 0.000921235
4 *763:20 *1062:S 1.03403e-05
5 *763:20 *1105:A3 0.00019892
6 *763:20 *1377:DE 8.91253e-05
7 *763:20 *880:55 8.16827e-05
8 *763:20 *880:59 0.00055688
9 *763:20 *904:147 6.25372e-06
10 *1473:D *763:20 0.000179271
11 *15:17 *763:20 0
12 *69:220 *763:20 9.22013e-06
13 *69:226 *763:20 6.80864e-05
*RES
1 *1377:Q *763:20 48.9798 
2 *763:20 *1105:A2 10.5271 
*END

*D_NET *764 0.000404368
*CONN
*I *1110:A2 I *D sky130_fd_sc_hd__mux4_2
*I *1378:Q O *D sky130_fd_sc_hd__edfxtp_1
*CAP
1 *1110:A2 0.000202184
2 *1378:Q 0.000202184
*RES
1 *1378:Q *1110:A2 22.8266 
*END

*D_NET *765 0.00184318
*CONN
*I *1115:A2 I *D sky130_fd_sc_hd__mux4_2
*I *1379:Q O *D sky130_fd_sc_hd__edfxtp_1
*CAP
1 *1115:A2 0.000729098
2 *1379:Q 0.000729098
3 *1115:A2 *881:111 0
4 *1115:A2 *881:113 0
5 *1115:A2 *882:26 0.000297007
6 *1115:A2 *882:32 8.37812e-05
7 *521:22 *1115:A2 4.19401e-06
*RES
1 *1379:Q *1115:A2 41.4146 
*END

*D_NET *766 0.00120131
*CONN
*I *1120:A2 I *D sky130_fd_sc_hd__mux4_2
*I *1380:Q O *D sky130_fd_sc_hd__edfxtp_1
*CAP
1 *1120:A2 0.000407535
2 *1380:Q 0.000407535
3 *1120:A2 *1380:DE 0.000386246
*RES
1 *1380:Q *1120:A2 25.5996 
*END

*D_NET *767 0.00229487
*CONN
*I *1125:A2 I *D sky130_fd_sc_hd__mux4_2
*I *1381:Q O *D sky130_fd_sc_hd__edfxtp_1
*CAP
1 *1125:A2 0.000833103
2 *1381:Q 0.000833103
3 *1125:A2 *1125:A3 0.000205659
4 *1125:A2 *881:365 5.20308e-05
5 *1125:A0 *1125:A2 0
6 *1125:A1 *1125:A2 0.000109421
7 *1127:A1 *1125:A2 7.84835e-05
8 *325:14 *1125:A2 0.000183065
*RES
1 *1381:Q *1125:A2 41.589 
*END

*D_NET *768 0.000709994
*CONN
*I *1130:A2 I *D sky130_fd_sc_hd__mux4_2
*I *1382:Q O *D sky130_fd_sc_hd__edfxtp_1
*CAP
1 *1130:A2 0.000206849
2 *1382:Q 0.000206849
3 *1130:A2 *888:205 1.7568e-05
4 *1574:D *1130:A2 0.000154609
5 *121:106 *1130:A2 4.35492e-05
6 *124:226 *1130:A2 8.05698e-05
*RES
1 *1382:Q *1130:A2 33.4159 
*END

*D_NET *769 0.00168869
*CONN
*I *1135:A2 I *D sky130_fd_sc_hd__mux4_2
*I *1383:Q O *D sky130_fd_sc_hd__edfxtp_1
*CAP
1 *1135:A2 0.000690083
2 *1383:Q 0.000690083
3 *1135:A2 *861:99 0.000248753
4 *537:16 *1135:A2 5.97738e-05
*RES
1 *1383:Q *1135:A2 39.3384 
*END

*D_NET *770 0.0026817
*CONN
*I *1140:A2 I *D sky130_fd_sc_hd__mux4_2
*I *1384:Q O *D sky130_fd_sc_hd__edfxtp_1
*CAP
1 *1140:A2 0.000814643
2 *1384:Q 0.000814643
3 *1140:A2 *1140:A3 0.00029867
4 *1140:A2 *1278:B 0
5 *1140:A2 *874:501 0.000148606
6 *1140:A2 *881:145 6.50586e-05
7 *1140:A0 *1140:A2 0.000207665
8 *1140:A1 *1140:A2 0.000332412
*RES
1 *1384:Q *1140:A2 48.5034 
*END

*D_NET *771 0.000396094
*CONN
*I *1145:A2 I *D sky130_fd_sc_hd__mux4_2
*I *1385:Q O *D sky130_fd_sc_hd__edfxtp_1
*CAP
1 *1145:A2 0.000160511
2 *1385:Q 0.000160511
3 *1481:D *1145:A2 7.50722e-05
*RES
1 *1385:Q *1145:A2 30.4703 
*END

*D_NET *772 0.00200923
*CONN
*I *1150:A2 I *D sky130_fd_sc_hd__mux4_2
*I *1386:Q O *D sky130_fd_sc_hd__edfxtp_1
*CAP
1 *1150:A2 0.000483294
2 *1386:Q 0.000483294
3 *943:A *1150:A2 0.00013116
4 *2265:A *1150:A2 0.000145441
5 *128:20 *1150:A2 0.000376999
6 *417:279 *1150:A2 0.000389042
*RES
1 *1386:Q *1150:A2 40.9938 
*END

*D_NET *773 0.00187036
*CONN
*I *1015:A2 I *D sky130_fd_sc_hd__mux4_2
*I *1647:Q O *D sky130_fd_sc_hd__edfxtp_1
*CAP
1 *1015:A2 0.000646151
2 *1647:Q 0.000646151
3 *1015:A2 *1015:A3 0
4 *1015:A2 *1016:S0 0.000178994
5 *1015:A1 *1015:A2 0
6 *124:46 *1015:A2 5.99155e-05
7 *124:56 *1015:A2 0.000339148
8 *440:14 *1015:A2 0
*RES
1 *1647:Q *1015:A2 44.5206 
*END

*D_NET *774 0.00145856
*CONN
*I *1155:A2 I *D sky130_fd_sc_hd__mux4_2
*I *1387:Q O *D sky130_fd_sc_hd__edfxtp_1
*CAP
1 *1155:A2 0.00072928
2 *1387:Q 0.00072928
3 *1155:A2 *1155:A3 0
4 *1155:A2 *874:81 0
5 *1155:A2 *903:67 0
6 *1155:A2 *903:69 0
*RES
1 *1387:Q *1155:A2 44.4496 
*END

*D_NET *775 0.00200654
*CONN
*I *1160:A2 I *D sky130_fd_sc_hd__mux4_2
*I *1388:Q O *D sky130_fd_sc_hd__edfxtp_1
*CAP
1 *1160:A2 0.000692449
2 *1388:Q 0.000692449
3 *1160:A2 *1160:A3 0.000146696
4 *1160:A2 *1160:S1 0.000217031
5 *1160:A2 *889:16 1.43287e-05
6 *1160:A1 *1160:A2 0.000243584
*RES
1 *1388:Q *1160:A2 42.2746 
*END

*D_NET *776 0.00214924
*CONN
*I *1020:A2 I *D sky130_fd_sc_hd__mux4_2
*I *1648:Q O *D sky130_fd_sc_hd__edfxtp_1
*CAP
1 *1020:A2 0.000870286
2 *1648:Q 0.000870286
3 *1020:A2 *867:16 0.000114271
4 *1020:S0 *1020:A2 0
5 *1552:D *1020:A2 3.37671e-05
6 *69:212 *1020:A2 6.93171e-05
7 *69:298 *1020:A2 0.000191318
*RES
1 *1648:Q *1020:A2 42.1114 
*END

*D_NET *777 0.00134982
*CONN
*I *1025:A2 I *D sky130_fd_sc_hd__mux4_2
*I *1649:Q O *D sky130_fd_sc_hd__edfxtp_1
*CAP
1 *1025:A2 0.000479591
2 *1649:Q 0.000479591
3 *1025:A2 *876:414 0.000175085
4 *1025:A1 *1025:A2 0
5 *1489:DE *1025:A2 1.5714e-05
6 *121:178 *1025:A2 0.000104013
7 *417:461 *1025:A2 9.58287e-05
*RES
1 *1649:Q *1025:A2 39.7887 
*END

*D_NET *778 0.00197649
*CONN
*I *1030:A2 I *D sky130_fd_sc_hd__mux4_2
*I *1650:Q O *D sky130_fd_sc_hd__edfxtp_1
*CAP
1 *1030:A2 0.000541231
2 *1650:Q 0.000541231
3 *1030:A2 *1030:A3 7.23509e-05
4 *1030:A2 *1266:B 6.08467e-05
5 *1030:A2 *894:229 0.000476301
6 *418:89 *1030:A2 8.36586e-06
7 *418:97 *1030:A2 0.000276169
*RES
1 *1650:Q *1030:A2 41.0558 
*END

*D_NET *779 0.00102461
*CONN
*I *1035:A2 I *D sky130_fd_sc_hd__mux4_2
*I *1651:Q O *D sky130_fd_sc_hd__edfxtp_1
*CAP
1 *1035:A2 0.000496558
2 *1651:Q 0.000496558
3 *1035:A2 *1035:A3 3.14978e-05
*RES
1 *1651:Q *1035:A2 25.5996 
*END

*D_NET *780 0.001965
*CONN
*I *1040:A2 I *D sky130_fd_sc_hd__mux4_2
*I *1652:Q O *D sky130_fd_sc_hd__edfxtp_1
*CAP
1 *1040:A2 0.000595565
2 *1652:Q 0.000595565
3 *1648:D *1040:A2 0
4 *69:187 *1040:A2 0
5 *423:42 *1040:A2 0.000119268
6 *459:18 *1040:A2 0.000654597
*RES
1 *1652:Q *1040:A2 39.3384 
*END

*D_NET *781 0.000621011
*CONN
*I *1045:A2 I *D sky130_fd_sc_hd__mux4_2
*I *1653:Q O *D sky130_fd_sc_hd__edfxtp_1
*CAP
1 *1045:A2 0.000261838
2 *1653:Q 0.000261838
3 *1045:A2 *1125:S0 7.86825e-06
4 *1045:A2 *906:127 8.94667e-05
5 *1557:D *1045:A2 0
*RES
1 *1653:Q *1045:A2 33.1012 
*END

*D_NET *782 0.00139861
*CONN
*I *1050:A2 I *D sky130_fd_sc_hd__mux4_2
*I *1654:Q O *D sky130_fd_sc_hd__edfxtp_1
*CAP
1 *1050:A2 0.000555186
2 *1654:Q 0.000555186
3 *1050:A2 *1050:S0 0
4 *1050:A2 *1174:C 0.000178209
5 *1050:A2 *890:89 0
6 *1270:A *1050:A2 6.18121e-05
7 *32:73 *1050:A2 4.82162e-05
*RES
1 *1654:Q *1050:A2 37.6774 
*END

*D_NET *783 0.00149293
*CONN
*I *1005:A3 I *D sky130_fd_sc_hd__mux4_2
*I *1485:Q O *D sky130_fd_sc_hd__edfxtp_1
*CAP
1 *1005:A3 0.000737101
2 *1485:Q 0.000737101
3 *1005:A3 *1005:S1 1.03594e-05
4 *1005:A0 *1005:A3 0
5 *1005:A2 *1005:A3 8.36586e-06
*RES
1 *1485:Q *1005:A3 40.3082 
*END

*D_NET *784 0.000768436
*CONN
*I *1055:A3 I *D sky130_fd_sc_hd__mux4_2
*I *1495:Q O *D sky130_fd_sc_hd__edfxtp_1
*CAP
1 *1055:A3 0.000285738
2 *1495:Q 0.000285738
3 *69:187 *1055:A3 0.000152599
4 *418:34 *1055:A3 4.43615e-05
*RES
1 *1495:Q *1055:A3 33.3799 
*END

*D_NET *785 0.000293202
*CONN
*I *1060:A3 I *D sky130_fd_sc_hd__mux4_2
*I *1496:Q O *D sky130_fd_sc_hd__edfxtp_1
*CAP
1 *1060:A3 7.46841e-05
2 *1496:Q 7.46841e-05
3 *1060:A3 *859:12 4.27003e-05
4 *1060:A3 *881:119 0.000101133
*RES
1 *1496:Q *1060:A3 29.7764 
*END

*D_NET *786 0.000640703
*CONN
*I *1065:A3 I *D sky130_fd_sc_hd__mux4_2
*I *1497:Q O *D sky130_fd_sc_hd__edfxtp_1
*CAP
1 *1065:A3 0.000230326
2 *1497:Q 0.000230326
3 *1065:A3 *1065:S0 5.7672e-05
4 *1065:A1 *1065:A3 0.000122378
*RES
1 *1497:Q *1065:A3 24.4904 
*END

*D_NET *787 0.00176116
*CONN
*I *1070:A3 I *D sky130_fd_sc_hd__mux4_2
*I *1498:Q O *D sky130_fd_sc_hd__edfxtp_1
*CAP
1 *1070:A3 0.000380076
2 *1498:Q 0.000380076
3 *1070:A3 *1070:S1 6.08467e-05
4 *1070:A3 *1306:B 0.000276196
5 *1070:A3 *890:265 0.000384424
6 *465:24 *1070:A3 0.000279539
*RES
1 *1498:Q *1070:A3 37.704 
*END

*D_NET *788 0.00214313
*CONN
*I *1075:A3 I *D sky130_fd_sc_hd__mux4_2
*I *1499:Q O *D sky130_fd_sc_hd__edfxtp_1
*CAP
1 *1075:A3 0.000613393
2 *1499:Q 0.000613393
3 *1075:A3 *1275:C 0.000215611
4 *1075:A3 *876:261 0.000394403
5 *1075:A3 *891:294 0
6 *1075:A2 *1075:A3 0.000150291
7 *1563:D *1075:A3 9.14201e-05
8 *1563:DE *1075:A3 6.46135e-05
9 *427:536 *1075:A3 0
*RES
1 *1499:Q *1075:A3 45.5588 
*END

*D_NET *789 0.0011319
*CONN
*I *1080:A3 I *D sky130_fd_sc_hd__mux4_2
*I *1500:Q O *D sky130_fd_sc_hd__edfxtp_1
*CAP
1 *1080:A3 0.000455271
2 *1500:Q 0.000455271
3 *1080:A3 *1508:DE 0.000144734
4 *1080:A3 *865:102 0
5 *1080:A2 *1080:A3 6.62622e-05
6 *1080:S1 *1080:A3 1.03594e-05
*RES
1 *1500:Q *1080:A3 38.7754 
*END

*D_NET *790 0.00139411
*CONN
*I *1085:A3 I *D sky130_fd_sc_hd__mux4_2
*I *1501:Q O *D sky130_fd_sc_hd__edfxtp_1
*CAP
1 *1085:A3 0.000620753
2 *1501:Q 0.000620753
3 *1085:A3 *881:433 0.000152599
*RES
1 *1501:Q *1085:A3 37.8167 
*END

*D_NET *791 0.00128585
*CONN
*I *1090:A3 I *D sky130_fd_sc_hd__mux4_2
*I *1502:Q O *D sky130_fd_sc_hd__edfxtp_1
*CAP
1 *1090:A3 0.000341606
2 *1502:Q 0.000341606
3 *1090:A3 *1090:S0 0
4 *1090:A3 *1090:S1 0.000187505
5 *1090:A3 *1470:DE 0.000122858
6 *1090:A3 *865:289 0.000137156
7 *1090:A2 *1090:A3 1.79672e-05
8 *1357:B *1090:A3 0.000137156
*RES
1 *1502:Q *1090:A3 38.7754 
*END

*D_NET *792 0.00224029
*CONN
*I *1095:A3 I *D sky130_fd_sc_hd__mux4_2
*I *1503:Q O *D sky130_fd_sc_hd__edfxtp_1
*CAP
1 *1095:A3 0.000471584
2 *1503:Q 0.000471584
3 *1095:A3 *2272:A 8.45422e-05
4 *1095:A3 *865:168 0.000137162
5 *1095:A3 *873:55 3.15381e-05
6 *1095:A3 *903:52 5.10293e-05
7 *1155:S0 *1095:A3 0.000892335
8 *69:138 *1095:A3 3.5837e-05
9 *437:24 *1095:A3 6.46783e-05
*RES
1 *1503:Q *1095:A3 45.4194 
*END

*D_NET *793 0.00083694
*CONN
*I *1100:A3 I *D sky130_fd_sc_hd__mux4_2
*I *1504:Q O *D sky130_fd_sc_hd__edfxtp_1
*CAP
1 *1100:A3 0.00041847
2 *1504:Q 0.00041847
*RES
1 *1504:Q *1100:A3 27.2634 
*END

*D_NET *794 0.000593205
*CONN
*I *1010:A3 I *D sky130_fd_sc_hd__mux4_2
*I *1486:Q O *D sky130_fd_sc_hd__edfxtp_1
*CAP
1 *1010:A3 0.000258555
2 *1486:Q 0.000258555
3 *69:214 *1010:A3 3.77804e-05
4 *423:65 *1010:A3 1.90218e-05
5 *437:16 *1010:A3 1.92926e-05
*RES
1 *1486:Q *1010:A3 31.9948 
*END

*D_NET *795 0.00191875
*CONN
*I *1105:A3 I *D sky130_fd_sc_hd__mux4_2
*I *1505:Q O *D sky130_fd_sc_hd__edfxtp_1
*CAP
1 *1105:A3 0.000684052
2 *1505:Q 0.000684052
3 *1105:A3 *865:218 1.8456e-05
4 *1105:A3 *880:55 3.42731e-05
5 *1105:A0 *1105:A3 0.000107496
6 *1105:A1 *1105:A3 9.39633e-05
7 *1107:A1 *1105:A3 9.75356e-05
8 *763:20 *1105:A3 0.00019892
*RES
1 *1505:Q *1105:A3 41.6076 
*END

*D_NET *796 0.00161263
*CONN
*I *1110:A3 I *D sky130_fd_sc_hd__mux4_2
*I *1506:Q O *D sky130_fd_sc_hd__edfxtp_1
*CAP
1 *1110:A3 0.000409858
2 *1506:Q 0.000409858
3 *1110:A3 *1466:DE 0.000127179
4 *1110:A3 *881:387 0.000120105
5 *1110:A3 *881:405 3.20069e-06
6 *1110:A3 *906:127 0.000166129
7 *1314:B *1110:A3 0.000376303
*RES
1 *1506:Q *1110:A3 37.704 
*END

*D_NET *797 0.000821464
*CONN
*I *1115:A3 I *D sky130_fd_sc_hd__mux4_2
*I *1507:Q O *D sky130_fd_sc_hd__edfxtp_1
*CAP
1 *1115:A3 0.000410732
2 *1507:Q 0.000410732
*RES
1 *1507:Q *1115:A3 27.2634 
*END

*D_NET *798 0.000862568
*CONN
*I *1120:A3 I *D sky130_fd_sc_hd__mux4_2
*I *1508:Q O *D sky130_fd_sc_hd__edfxtp_1
*CAP
1 *1120:A3 0.000431284
2 *1508:Q 0.000431284
3 *1120:A0 *1120:A3 0
4 *13:13 *1120:A3 0
*RES
1 *1508:Q *1120:A3 34.2132 
*END

*D_NET *799 0.0016751
*CONN
*I *1125:A3 I *D sky130_fd_sc_hd__mux4_2
*I *1509:Q O *D sky130_fd_sc_hd__edfxtp_1
*CAP
1 *1125:A3 0.000622846
2 *1509:Q 0.000622846
3 *1125:A3 *881:365 6.27718e-05
4 *1125:A2 *1125:A3 0.000205659
5 *121:137 *1125:A3 9.21925e-05
6 *417:351 *1125:A3 3.72756e-05
7 *418:443 *1125:A3 3.15128e-05
*RES
1 *1509:Q *1125:A3 38.8188 
*END

*D_NET *800 0.00150644
*CONN
*I *1130:A3 I *D sky130_fd_sc_hd__mux4_2
*I *1510:Q O *D sky130_fd_sc_hd__edfxtp_1
*CAP
1 *1130:A3 0.000652546
2 *1510:Q 0.000652546
3 *1130:A3 *1025:S1 6.27782e-05
4 *1130:A3 *881:525 6.27718e-05
5 *121:112 *1130:A3 7.31894e-05
6 *124:226 *1130:A3 2.60879e-06
*RES
1 *1510:Q *1130:A3 37.7096 
*END

*D_NET *801 0.000683017
*CONN
*I *1135:A3 I *D sky130_fd_sc_hd__mux4_2
*I *1511:Q O *D sky130_fd_sc_hd__edfxtp_1
*CAP
1 *1135:A3 0.000306637
2 *1511:Q 0.000306637
3 *1135:A3 *1135:S0 5.22859e-05
4 *1135:A3 *883:127 1.74575e-05
*RES
1 *1511:Q *1135:A3 24.4904 
*END

*D_NET *802 0.0017277
*CONN
*I *1140:A3 I *D sky130_fd_sc_hd__mux4_2
*I *1512:Q O *D sky130_fd_sc_hd__edfxtp_1
*CAP
1 *1140:A3 0.00052085
2 *1512:Q 0.00052085
3 *1140:A3 *881:166 6.30541e-06
4 *1140:A3 *881:174 3.32268e-05
5 *1140:A3 *882:107 0
6 *1140:A1 *1140:A3 0.000335755
7 *1140:A2 *1140:A3 0.00029867
8 *424:383 *1140:A3 1.20472e-05
*RES
1 *1512:Q *1140:A3 41.7172 
*END

*D_NET *803 0.0011724
*CONN
*I *1145:A3 I *D sky130_fd_sc_hd__mux4_2
*I *1513:Q O *D sky130_fd_sc_hd__edfxtp_1
*CAP
1 *1145:A3 0.000425969
2 *1513:Q 0.000425969
3 *1145:A3 *906:64 0
4 *1147:A1 *1145:A3 0
5 *1481:D *1145:A3 0.000144219
6 *121:91 *1145:A3 0.000137156
7 *544:14 *1145:A3 0
8 *545:16 *1145:A3 3.90891e-05
*RES
1 *1513:Q *1145:A3 37.5296 
*END

*D_NET *804 0.00136156
*CONN
*I *1150:A3 I *D sky130_fd_sc_hd__mux4_2
*I *1514:Q O *D sky130_fd_sc_hd__edfxtp_1
*CAP
1 *1150:A3 0.000663124
2 *1514:Q 0.000663124
3 *1150:A3 *1482:DE 1.78627e-05
4 *1150:A3 *1514:CLK 1.74529e-05
*RES
1 *1514:Q *1150:A3 27.8422 
*END

*D_NET *805 0.00151925
*CONN
*I *1015:A3 I *D sky130_fd_sc_hd__mux4_2
*I *1487:Q O *D sky130_fd_sc_hd__edfxtp_1
*CAP
1 *1015:A3 0.000592236
2 *1487:Q 0.000592236
3 *1015:A1 *1015:A3 9.7696e-05
4 *1015:A2 *1015:A3 0
5 *121:80 *1015:A3 0.000237081
*RES
1 *1487:Q *1015:A3 39.9168 
*END

*D_NET *806 0.00116465
*CONN
*I *1155:A3 I *D sky130_fd_sc_hd__mux4_2
*I *1515:Q O *D sky130_fd_sc_hd__edfxtp_1
*CAP
1 *1155:A3 0.00034481
2 *1515:Q 0.00034481
3 *1155:A3 *874:81 0.000475033
4 *1155:A3 *903:67 0
5 *1155:A2 *1155:A3 0
*RES
1 *1515:Q *1155:A3 37.6984 
*END

*D_NET *807 0.00179007
*CONN
*I *1160:A3 I *D sky130_fd_sc_hd__mux4_2
*I *1516:Q O *D sky130_fd_sc_hd__edfxtp_1
*CAP
1 *1160:A3 0.000550245
2 *1516:Q 0.000550245
3 *1160:A3 *1160:S1 6.64392e-05
4 *1160:A0 *1160:A3 0.000196972
5 *1160:A1 *1160:A3 0.000279468
6 *1160:A2 *1160:A3 0.000146696
*RES
1 *1516:Q *1160:A3 45.0392 
*END

*D_NET *808 0.000912738
*CONN
*I *1020:A3 I *D sky130_fd_sc_hd__mux4_2
*I *1488:Q O *D sky130_fd_sc_hd__edfxtp_1
*CAP
1 *1020:A3 0.000358101
2 *1488:Q 0.000358101
3 *1020:A3 *903:215 6.54368e-06
4 *1020:A0 *1020:A3 0
5 *69:212 *1020:A3 8.70127e-05
6 *69:298 *1020:A3 0.000102979
*RES
1 *1488:Q *1020:A3 36.975 
*END

*D_NET *809 0.0014699
*CONN
*I *1025:A3 I *D sky130_fd_sc_hd__mux4_2
*I *1489:Q O *D sky130_fd_sc_hd__edfxtp_1
*CAP
1 *1025:A3 0.000606905
2 *1489:Q 0.000606905
3 *1025:A3 *1265:C 0
4 *966:B *1025:A3 0.000190149
5 *1489:DE *1025:A3 6.5945e-05
*RES
1 *1489:Q *1025:A3 38.3713 
*END

*D_NET *810 0.00167533
*CONN
*I *1030:A3 I *D sky130_fd_sc_hd__mux4_2
*I *1490:Q O *D sky130_fd_sc_hd__edfxtp_1
*CAP
1 *1030:A3 0.000694149
2 *1490:Q 0.000694149
3 *1030:A3 *1170:B 1.46927e-05
4 *1030:A3 *1266:B 5.19705e-05
5 *1030:A3 *868:29 2.4433e-05
6 *1030:A0 *1030:A3 0
7 *1030:A2 *1030:A3 7.23509e-05
8 *1554:D *1030:A3 0.000123582
9 *418:97 *1030:A3 0
*RES
1 *1490:Q *1030:A3 44.7283 
*END

*D_NET *811 0.0019724
*CONN
*I *1035:A3 I *D sky130_fd_sc_hd__mux4_2
*I *1491:Q O *D sky130_fd_sc_hd__edfxtp_1
*CAP
1 *1035:A3 0.000705486
2 *1491:Q 0.000705486
3 *1035:A3 *1035:S0 0.000302104
4 *1035:A3 *1035:S1 0
5 *1035:A2 *1035:A3 3.14978e-05
6 *1171:A *1035:A3 0.000219898
7 *1459:D *1035:A3 0
8 *424:340 *1035:A3 7.92757e-06
*RES
1 *1491:Q *1035:A3 42.4167 
*END

*D_NET *812 0.000946945
*CONN
*I *1040:A3 I *D sky130_fd_sc_hd__mux4_2
*I *1492:Q O *D sky130_fd_sc_hd__edfxtp_1
*CAP
1 *1040:A3 0.000354803
2 *1492:Q 0.000354803
3 *1040:S0 *1040:A3 0.00022301
4 *68:110 *1040:A3 1.43298e-05
*RES
1 *1492:Q *1040:A3 27.2634 
*END

*D_NET *813 0.00149921
*CONN
*I *1045:A3 I *D sky130_fd_sc_hd__mux4_2
*I *1493:Q O *D sky130_fd_sc_hd__edfxtp_1
*CAP
1 *1045:A3 0.000388582
2 *1493:Q 0.000388582
3 *1045:A3 *878:154 0
4 *1045:A3 *881:379 0.000185617
5 *1045:A3 *906:121 0.000175674
6 *1045:A3 *906:127 0.000360759
7 *1045:A1 *1045:A3 0
*RES
1 *1493:Q *1045:A3 38.9147 
*END

*D_NET *814 0.000923642
*CONN
*I *1050:A3 I *D sky130_fd_sc_hd__mux4_2
*I *1494:Q O *D sky130_fd_sc_hd__edfxtp_1
*CAP
1 *1050:A3 0.000441568
2 *1494:Q 0.000441568
3 *1050:A3 *1050:S0 4.05065e-05
*RES
1 *1494:Q *1050:A3 25.0691 
*END

*D_NET *815 0.000463625
*CONN
*I *1689:D I *D sky130_fd_sc_hd__dfxtp_4
*I *1680:Y O *D sky130_fd_sc_hd__a21oi_1
*CAP
1 *1689:D 0.000112807
2 *1680:Y 0.000112807
3 *1689:D *1680:B1 0.000150629
4 *1674:B *1689:D 2.28389e-05
5 *70:20 *1689:D 4.58089e-05
6 *127:10 *1689:D 1.87349e-05
*RES
1 *1680:Y *1689:D 31.4065 
*END

*D_NET *816 0.00198962
*CONN
*I *1690:D I *D sky130_fd_sc_hd__dfxtp_4
*I *1683:Y O *D sky130_fd_sc_hd__nor3_1
*CAP
1 *1690:D 0.000474738
2 *1683:Y 0.000474738
3 *1690:D *821:12 0
4 *1290:C *1690:D 0.00039682
5 *69:8 *1690:D 3.82228e-05
6 *421:45 *1690:D 0
7 *421:51 *1690:D 5.22654e-06
8 *424:10 *1690:D 0.000599877
*RES
1 *1683:Y *1690:D 41.0064 
*END

*D_NET *817 0.00142677
*CONN
*I *1691:D I *D sky130_fd_sc_hd__dfxtp_4
*I *1686:Y O *D sky130_fd_sc_hd__nor3_1
*CAP
1 *1691:D 0.000356052
2 *1686:Y 0.000356052
3 *1691:D *1683:A 7.40253e-05
4 *68:189 *1691:D 0.000155649
5 *69:10 *1691:D 4.72872e-05
6 *69:16 *1691:D 2.47663e-05
7 *69:365 *1691:D 0.000139434
8 *70:20 *1691:D 0.000117423
9 *418:16 *1691:D 0.000156076
*RES
1 *1686:Y *1691:D 38.2222 
*END

*D_NET *818 0.000540055
*CONN
*I *1692:D I *D sky130_fd_sc_hd__dfxtp_1
*I *1688:Y O *D sky130_fd_sc_hd__a211oi_1
*CAP
1 *1692:D 0.000120646
2 *1688:Y 0.000120646
3 *1692:D *1692:CLK 3.92707e-05
4 *1692:D *879:12 9.86471e-05
5 *944:B *1692:D 4.27741e-06
6 *127:10 *1692:D 0.000137323
7 *423:12 *1692:D 1.92443e-05
*RES
1 *1688:Y *1692:D 31.3182 
*END

*D_NET *819 0.00129805
*CONN
*I *1678:B1 I *D sky130_fd_sc_hd__a41oi_1
*I *1665:Y O *D sky130_fd_sc_hd__clkinv_1
*CAP
1 *1678:B1 0.000224961
2 *1665:Y 0.000224961
3 *936:D *1678:B1 0.00020283
4 *65:12 *1678:B1 2.58757e-05
5 *419:16 *1678:B1 0.000498267
6 *427:10 *1678:B1 0.000121157
*RES
1 *1665:Y *1678:B1 37.113 
*END

*D_NET *820 0.00447604
*CONN
*I *1688:C1 I *D sky130_fd_sc_hd__a211oi_1
*I *1683:A I *D sky130_fd_sc_hd__nor3_1
*I *1686:A I *D sky130_fd_sc_hd__nor3_1
*I *1666:Y O *D sky130_fd_sc_hd__clkinv_1
*CAP
1 *1688:C1 0.000339103
2 *1683:A 0.000567714
3 *1686:A 0
4 *1666:Y 0.000464668
5 *820:6 0.000693279
6 *1683:A *1683:B 0.000451016
7 *1683:A *1683:C 5.0715e-05
8 *1688:C1 *1683:B 0.000160384
9 *1688:C1 *1688:A2 0.000178804
10 *1688:C1 *1688:B1 6.50586e-05
11 *1688:C1 *1691:CLK 6.50586e-05
12 *1688:C1 *902:121 3.17456e-05
13 *1688:C1 *902:132 1.90335e-05
14 *1290:A *1683:A 0
15 *1691:D *1683:A 7.40253e-05
16 *69:16 *1683:A 0.000140779
17 *70:20 *1683:A 2.67514e-05
18 *127:10 *1688:C1 0.000465404
19 *417:51 *1683:A 2.30636e-05
20 *417:51 *820:6 0.000234888
21 *418:16 *1683:A 2.58616e-05
22 *418:16 *1688:C1 0.000160942
23 *418:16 *820:6 0.000234888
24 *421:51 *1683:A 2.86013e-06
*RES
1 *1666:Y *820:6 15.5186 
2 *820:6 *1686:A 9.24915 
3 *820:6 *1683:A 30.147 
4 *1666:Y *1688:C1 38.9456 
*END

*D_NET *821 0.00486951
*CONN
*I *1670:A I *D sky130_fd_sc_hd__nor2_1
*I *1668:Y O *D sky130_fd_sc_hd__nor2_1
*CAP
1 *1670:A 0.000109251
2 *1668:Y 0.00102499
3 *821:12 0.00113424
4 *1670:A *1670:B 0.00055867
5 *821:12 *1670:B 0.000164946
6 *821:12 *1683:C 6.50727e-05
7 *821:12 *2290:A 0.000133939
8 *913:B *821:12 0.000122978
9 *921:D *821:12 0.00016133
10 *1690:D *821:12 0
11 *2268:A *1670:A 4.61271e-05
12 *70:157 *821:12 0
13 *76:12 *821:12 0.000435649
14 *76:53 *821:12 0.000254456
15 *83:138 *1670:A 0.000657848
*RES
1 *1668:Y *821:12 47.7959 
2 *821:12 *1670:A 17.2065 
*END

*D_NET *822 0.00524863
*CONN
*I *1670:B I *D sky130_fd_sc_hd__nor2_1
*I *1688:A1 I *D sky130_fd_sc_hd__a211oi_1
*I *1669:X O *D sky130_fd_sc_hd__and2_0
*CAP
1 *1670:B 0.000630284
2 *1688:A1 0.000648007
3 *1669:X 0
4 *822:4 0.00127829
5 *910:B *1670:B 0
6 *913:B *1670:B 5.62448e-05
7 *944:B *1688:A1 0.000373393
8 *948:C *1688:A1 0
9 *1667:B *1688:A1 0.000160617
10 *1670:A *1670:B 0.00055867
11 *1685:A *1688:A1 0.000169355
12 *1685:B *1688:A1 2.14314e-05
13 *1685:C *1670:B 3.51249e-05
14 *2268:A *1670:B 0.000707437
15 *69:403 *1688:A1 0.000111722
16 *70:157 *1670:B 5.05252e-05
17 *78:8 *1688:A1 6.12686e-06
18 *80:14 *1688:A1 0.000213725
19 *83:138 *1670:B 6.27332e-05
20 *127:157 *1670:B 0
21 *421:45 *1688:A1 0
22 *821:12 *1670:B 0.000164946
*RES
1 *1669:X *822:4 9.24915 
2 *822:4 *1688:A1 36.8152 
3 *822:4 *1670:B 40.472 
*END

*D_NET *823 0.00341004
*CONN
*I *1672:A I *D sky130_fd_sc_hd__clkinv_1
*I *1671:Y O *D sky130_fd_sc_hd__xnor2_1
*CAP
1 *1672:A 0.000165705
2 *1671:Y 0.000952733
3 *823:12 0.00111844
4 *1672:A *864:10 0.000312627
5 *823:12 *856:8 0.000275102
6 *823:12 *861:13 5.2449e-05
7 *823:12 *875:20 0.000426509
8 *908:B *1672:A 8.8047e-05
9 *943:A *823:12 1.84293e-05
10 *429:16 *823:12 0
*RES
1 *1671:Y *823:12 44.8892 
2 *823:12 *1672:A 14.964 
*END

*D_NET *824 0.00369481
*CONN
*I *1678:A1 I *D sky130_fd_sc_hd__a41oi_1
*I *1677:A I *D sky130_fd_sc_hd__and4_1
*I *1673:Y O *D sky130_fd_sc_hd__xnor2_1
*CAP
1 *1678:A1 0
2 *1677:A 0.000271568
3 *1673:Y 0.00102839
4 *824:10 0.00129996
5 *1677:A *1677:B 7.56672e-05
6 *1677:A *1677:D 0.000118124
7 *1677:A *1678:A2 0.000100616
8 *1677:A *1678:A4 2.26149e-05
9 *824:10 *902:108 0.000126603
10 *938:D *824:10 5.68237e-06
11 *1673:B *824:10 0.000331226
12 *1674:C *1677:A 0.000122978
13 *1675:C *824:10 0
14 *65:12 *1677:A 6.46815e-05
15 *76:22 *824:10 3.02534e-05
16 *427:10 *824:10 9.64565e-05
*RES
1 *1673:Y *824:10 32.6583 
2 *824:10 *1677:A 23.7791 
3 *824:10 *1678:A1 13.7491 
*END

*D_NET *825 0.00202697
*CONN
*I *1678:A2 I *D sky130_fd_sc_hd__a41oi_1
*I *1677:B I *D sky130_fd_sc_hd__and4_1
*I *1674:X O *D sky130_fd_sc_hd__xnor3_1
*CAP
1 *1678:A2 0.000126102
2 *1677:B 0.000174431
3 *1674:X 0.000140949
4 *825:8 0.000441481
5 *1677:B *1677:D 5.04829e-06
6 *1674:C *1677:B 5.71849e-05
7 *1674:C *1678:A2 6.93171e-05
8 *1677:A *1677:B 7.56672e-05
9 *1677:A *1678:A2 0.000100616
10 *65:12 *1677:B 0.00027329
11 *427:10 *1677:B 0.00026952
12 *427:10 *1678:A2 0.000293368
*RES
1 *1674:X *825:8 15.5817 
2 *825:8 *1677:B 21.4297 
3 *825:8 *1678:A2 19.3184 
*END

*D_NET *826 0.00179711
*CONN
*I *1678:A3 I *D sky130_fd_sc_hd__a41oi_1
*I *1677:C I *D sky130_fd_sc_hd__and4_1
*I *1675:X O *D sky130_fd_sc_hd__xnor3_1
*CAP
1 *1678:A3 0.000105685
2 *1677:C 0.000327759
3 *1675:X 0.000433444
4 *1677:C *1677:D 0.000451404
5 *1677:C *1678:A4 7.40253e-05
6 *1678:A3 *1678:A4 0.000127288
7 *1678:A3 *828:12 0.000277502
*RES
1 *1675:X *1677:C 37.5282 
2 *1675:X *1678:A3 23.1039 
*END

*D_NET *827 0.00316352
*CONN
*I *1678:A4 I *D sky130_fd_sc_hd__a41oi_1
*I *1677:D I *D sky130_fd_sc_hd__and4_1
*I *1676:X O *D sky130_fd_sc_hd__xnor3_1
*CAP
1 *1678:A4 0.000252172
2 *1677:D 0.000300059
3 *1676:X 0.000545704
4 *827:8 0.00109793
5 *1676:C *827:8 0.000143031
6 *1677:A *1677:D 0.000118124
7 *1677:A *1678:A4 2.26149e-05
8 *1677:B *1677:D 5.04829e-06
9 *1677:C *1677:D 0.000451404
10 *1677:C *1678:A4 7.40253e-05
11 *1678:A3 *1678:A4 0.000127288
12 *65:12 *1677:D 2.61147e-05
13 *427:10 *1677:D 0
*RES
1 *1676:X *827:8 22.237 
2 *827:8 *1677:D 23.9184 
3 *827:8 *1678:A4 20.2109 
*END

*D_NET *828 0.00911024
*CONN
*I *1680:A2 I *D sky130_fd_sc_hd__a21oi_1
*I *1685:D I *D sky130_fd_sc_hd__and4_1
*I *1687:A4 I *D sky130_fd_sc_hd__a41oi_1
*I *1681:C I *D sky130_fd_sc_hd__and3_1
*I *1684:A3 I *D sky130_fd_sc_hd__a31oi_1
*I *1682:A2 I *D sky130_fd_sc_hd__a21oi_1
*I *1679:A2 I *D sky130_fd_sc_hd__o21ai_0
*I *1678:Y O *D sky130_fd_sc_hd__a41oi_1
*CAP
1 *1680:A2 0.000247484
2 *1685:D 0.000132858
3 *1687:A4 6.981e-05
4 *1681:C 0.000456061
5 *1684:A3 0
6 *1682:A2 5.32373e-05
7 *1679:A2 0.000109971
8 *1678:Y 0.000603375
9 *828:60 0.000447108
10 *828:49 0.000852439
11 *828:35 5.32373e-05
12 *828:33 0.000466796
13 *828:18 0.000743423
14 *828:12 0.00116945
15 *1680:A2 *1680:B1 2.65667e-05
16 *1681:C *1690:CLK 2.65667e-05
17 *1682:A2 *1683:B 0.000207266
18 *1685:D *1686:C 7.28994e-06
19 *828:18 *1689:CLK 0.000203411
20 *828:18 *902:121 0.000173046
21 *828:33 *1686:C 6.41697e-05
22 *828:49 *1686:C 0.000101738
23 *828:60 *1686:C 5.69623e-05
24 *828:60 *1688:B1 0.000340564
25 *944:A *1685:D 0.000304429
26 *944:A *828:60 8.36586e-06
27 *1675:A *828:18 8.47992e-05
28 *1675:B *828:18 9.35753e-06
29 *1675:C *828:12 6.3657e-05
30 *1678:A3 *828:12 0.000277502
31 *1679:B1 *1679:A2 6.08467e-05
32 *1684:A2 *1682:A2 1.92336e-05
33 *1687:B1 *1687:A4 6.27782e-05
34 *68:20 *1679:A2 3.19928e-05
35 *68:20 *828:33 7.74299e-05
36 *68:158 *1680:A2 3.15947e-05
37 *69:334 *1682:A2 0.000253916
38 *70:20 *828:33 0
39 *127:10 *828:18 0.000255116
40 *127:10 *828:33 0.000124926
41 *127:10 *828:49 9.85368e-05
42 *127:10 *828:60 0.000179923
43 *127:157 *1685:D 0.00029759
44 *127:157 *1687:A4 6.27782e-05
45 *424:10 *1681:C 0.00017884
46 *427:245 *1687:A4 1.37939e-05
*RES
1 *1678:Y *828:12 23.7653 
2 *828:12 *828:18 20.3828 
3 *828:18 *1679:A2 11.6605 
4 *828:18 *828:33 12.8717 
5 *828:33 *828:35 4.5 
6 *828:35 *1682:A2 12.191 
7 *828:35 *1684:A3 9.24915 
8 *828:33 *828:49 4.73876 
9 *828:49 *1681:C 20.9711 
10 *828:49 *828:60 8.89128 
11 *828:60 *1687:A4 15.5817 
12 *828:60 *1685:D 19.7337 
13 *828:12 *1680:A2 15.181 
*END

*D_NET *829 0.00153498
*CONN
*I *1680:B1 I *D sky130_fd_sc_hd__a21oi_1
*I *1679:Y O *D sky130_fd_sc_hd__o21ai_0
*CAP
1 *1680:B1 0.000496527
2 *1679:Y 0.000496527
3 *1680:A2 *1680:B1 2.65667e-05
4 *1689:D *1680:B1 0.000150629
5 *68:20 *1680:B1 0.000167939
6 *70:20 *1680:B1 0
7 *127:10 *1680:B1 0.000196792
*RES
1 *1679:Y *1680:B1 39.6395 
*END

*D_NET *830 0.00437658
*CONN
*I *1688:A2 I *D sky130_fd_sc_hd__a211oi_1
*I *1683:B I *D sky130_fd_sc_hd__nor3_1
*I *1681:X O *D sky130_fd_sc_hd__and3_1
*CAP
1 *1688:A2 0.00025616
2 *1683:B 0.000346955
3 *1681:X 0.000237292
4 *830:8 0.000840407
5 *1683:B *1683:C 0.000325031
6 *1683:B *902:121 0.000163982
7 *1688:A2 *1688:B1 7.18018e-05
8 *1688:A2 *902:121 6.53527e-05
9 *1688:A2 *902:132 0.000111921
10 *1668:A *1683:B 6.50727e-05
11 *1668:B *1683:B 9.28436e-05
12 *1682:A2 *1683:B 0.000207266
13 *1683:A *1683:B 0.000451016
14 *1684:A2 *1683:B 0.000262354
15 *1688:C1 *1683:B 0.000160384
16 *1688:C1 *1688:A2 0.000178804
17 *68:189 *1683:B 0.000115934
18 *69:332 *1683:B 1.41689e-05
19 *69:334 *1683:B 1.41853e-05
20 *70:14 *1683:B 0.000211492
21 *421:45 *1688:A2 2.02596e-05
22 *424:10 *830:8 0.000163895
*RES
1 *1681:X *830:8 17.8002 
2 *830:8 *1683:B 30.3544 
3 *830:8 *1688:A2 20.3769 
*END

*D_NET *831 0.00252702
*CONN
*I *1683:C I *D sky130_fd_sc_hd__nor3_1
*I *1682:Y O *D sky130_fd_sc_hd__a21oi_1
*CAP
1 *1683:C 0.000602731
2 *1682:Y 0.000602731
3 *1668:A *1683:C 2.65831e-05
4 *1668:B *1683:C 3.60592e-05
5 *1681:A *1683:C 1.61631e-05
6 *1683:A *1683:C 5.0715e-05
7 *1683:B *1683:C 0.000325031
8 *69:332 *1683:C 0.000260388
9 *69:334 *1683:C 0.000510762
10 *70:14 *1683:C 1.65872e-05
11 *421:51 *1683:C 1.41976e-05
12 *821:12 *1683:C 6.50727e-05
*RES
1 *1682:Y *1683:C 35.908 
*END

*D_NET *832 0.000335358
*CONN
*I *1686:B I *D sky130_fd_sc_hd__nor3_1
*I *1684:Y O *D sky130_fd_sc_hd__a31oi_1
*CAP
1 *1686:B 4.96761e-05
2 *1684:Y 4.96761e-05
3 *1686:B *1686:C 0.000118003
4 *70:20 *1686:B 0.000118003
*RES
1 *1684:Y *1686:B 29.7455 
*END

*D_NET *833 0.00296353
*CONN
*I *1686:C I *D sky130_fd_sc_hd__nor3_1
*I *1685:X O *D sky130_fd_sc_hd__and4_1
*CAP
1 *1686:C 0.000563584
2 *1685:X 0.000563584
3 *1686:C *1688:B1 0.000340564
4 *910:B *1686:C 5.65074e-05
5 *1685:D *1686:C 7.28994e-06
6 *1686:B *1686:C 0.000118003
7 *68:189 *1686:C 0.000708044
8 *68:200 *1686:C 7.444e-06
9 *70:20 *1686:C 1.37925e-05
10 *76:64 *1686:C 6.42595e-05
11 *127:157 *1686:C 0.00029759
12 *828:33 *1686:C 6.41697e-05
13 *828:49 *1686:C 0.000101738
14 *828:60 *1686:C 5.69623e-05
*RES
1 *1685:X *1686:C 49.6776 
*END

*D_NET *834 0.00148243
*CONN
*I *1688:B1 I *D sky130_fd_sc_hd__a211oi_1
*I *1687:Y O *D sky130_fd_sc_hd__a41oi_1
*CAP
1 *1688:B1 0.000285643
2 *1687:Y 0.000285643
3 *1688:B1 *1691:CLK 9.31601e-05
4 *1686:C *1688:B1 0.000340564
5 *1688:A2 *1688:B1 7.18018e-05
6 *1688:C1 *1688:B1 6.50586e-05
7 *828:60 *1688:B1 0.000340564
*RES
1 *1687:Y *1688:B1 37.9732 
*END

*D_NET *835 0.00104254
*CONN
*I *1716:D I *D sky130_fd_sc_hd__dfxtp_1
*I *1707:Y O *D sky130_fd_sc_hd__a21oi_1
*CAP
1 *1716:D 0.000226317
2 *1707:Y 0.000226317
3 *1716:D *1707:A2 2.79471e-05
4 *1716:D *1707:B1 4.10825e-05
5 *1716:D *847:54 0.000102638
6 *1716:D *849:14 8.62625e-06
7 *1716:D *886:53 6.54102e-05
8 *1707:A1 *1716:D 9.96342e-05
9 *1709:B1 *1716:D 0.000244564
*RES
1 *1707:Y *1716:D 36.3367 
*END

*D_NET *836 0.00213631
*CONN
*I *1717:D I *D sky130_fd_sc_hd__dfxtp_1
*I *1710:Y O *D sky130_fd_sc_hd__nor3_1
*CAP
1 *1717:D 0.000478548
2 *1710:Y 0.000478548
3 *1717:D *1707:A2 0.000122019
4 *1717:D *1710:B 0.000136883
5 *1717:D *1718:D 0.000354423
6 *1717:D *847:54 0.000354423
7 *1709:B1 *1717:D 0.000211464
*RES
1 *1710:Y *1717:D 41.9122 
*END

*D_NET *837 0.00259048
*CONN
*I *1718:D I *D sky130_fd_sc_hd__dfxtp_1
*I *1713:Y O *D sky130_fd_sc_hd__nor3_1
*CAP
1 *1718:D 0.000804306
2 *1713:Y 0.000804306
3 *1718:D *1707:B1 0
4 *1718:D *1710:B 0.000102365
5 *1718:D *1710:C 1.92172e-05
6 *1718:D *1713:C 5.04829e-06
7 *1718:D *847:34 1.6917e-05
8 *1718:D *847:54 0.000107279
9 *1718:D *886:49 2.00987e-05
10 *939:A_N *1718:D 2.22342e-05
11 *1695:B *1718:D 0
12 *1712:A *1718:D 6.46124e-05
13 *1717:D *1718:D 0.000354423
14 *84:14 *1718:D 0
15 *84:77 *1718:D 0.000164843
16 *85:25 *1718:D 0.000104825
*RES
1 *1713:Y *1718:D 49.2119 
*END

*D_NET *838 0.000936239
*CONN
*I *1719:D I *D sky130_fd_sc_hd__dfxtp_1
*I *1715:Y O *D sky130_fd_sc_hd__a211oi_1
*CAP
1 *1719:D 0.000236259
2 *1715:Y 0.000236259
3 *1719:D *1715:A1 0.000107496
4 *1719:D *1715:B1 2.41483e-05
5 *1719:D *1715:C1 0.000111722
6 *1719:D *847:22 6.50727e-05
7 *1719:D *886:43 3.67984e-05
8 *1714:A3 *1719:D 8.62625e-06
9 *83:170 *1719:D 0
10 *84:106 *1719:D 0.000109859
*RES
1 *1715:Y *1719:D 34.5742 
*END

*D_NET *839 0.00130463
*CONN
*I *1705:B1 I *D sky130_fd_sc_hd__a41oi_1
*I *1693:Y O *D sky130_fd_sc_hd__clkinv_1
*CAP
1 *1705:B1 0.000262492
2 *1693:Y 0.000262492
3 *1705:B1 *1704:D 0.000196177
4 *1705:B1 *847:10 0.00030755
5 *1705:B1 *851:14 7.50722e-05
6 *945:A *1705:B1 5.76123e-05
7 *1703:B *1705:B1 5.96736e-05
8 *86:10 *1705:B1 4.3116e-06
9 *86:12 *1705:B1 9.98029e-06
10 *92:49 *1705:B1 6.92705e-05
*RES
1 *1693:Y *1705:B1 37.113 
*END

*D_NET *840 0.00380619
*CONN
*I *1710:A I *D sky130_fd_sc_hd__nor3_1
*I *1715:C1 I *D sky130_fd_sc_hd__a211oi_1
*I *1713:A I *D sky130_fd_sc_hd__nor3_1
*I *1694:Y O *D sky130_fd_sc_hd__clkinv_1
*CAP
1 *1710:A 3.80166e-05
2 *1715:C1 0.000132316
3 *1713:A 0.000635584
4 *1694:Y 0.000214468
5 *840:12 0.00105566
6 *840:10 0.00054025
7 *1713:A *1713:C 0.000293521
8 *1713:A *851:14 1.00846e-05
9 *1715:C1 *1715:A1 2.15184e-05
10 *1715:C1 *1715:A2 0.000472639
11 *1715:C1 *1715:B1 6.50727e-05
12 *840:10 *1710:C 0
13 *1694:A *840:10 2.85139e-05
14 *1695:A *1713:A 1.59781e-05
15 *1696:A *1713:A 0
16 *1719:D *1715:C1 0.000111722
17 *83:170 *1713:A 0
18 *83:170 *840:12 0
19 *84:10 *1713:A 0
20 *84:12 *1713:A 0
21 *84:77 *1713:A 0
22 *84:77 *840:12 0
23 *84:106 *1715:C1 0.000155123
24 *88:15 *1713:A 1.5714e-05
25 *92:20 *1713:A 0
*RES
1 *1694:Y *840:10 18.1049 
2 *840:10 *840:12 6.39977 
3 *840:12 *1713:A 28.3469 
4 *840:12 *1715:C1 21.1278 
5 *840:10 *1710:A 14.4725 
*END

*D_NET *841 0.000878654
*CONN
*I *1698:A I *D sky130_fd_sc_hd__nor2_1
*I *1696:Y O *D sky130_fd_sc_hd__nor2_1
*CAP
1 *1698:A 0.000327855
2 *1696:Y 0.000327855
3 *925:B *1698:A 7.50872e-05
4 *1696:A *1698:A 6.92705e-05
5 *2277:A *1698:A 0
6 *86:35 *1698:A 0
7 *86:41 *1698:A 0
8 *86:47 *1698:A 7.85867e-05
*RES
1 *1696:Y *1698:A 33.7966 
*END

*D_NET *842 0.0022781
*CONN
*I *1715:A1 I *D sky130_fd_sc_hd__a211oi_1
*I *1698:B I *D sky130_fd_sc_hd__nor2_1
*I *1697:X O *D sky130_fd_sc_hd__and2_0
*CAP
1 *1715:A1 0.000516477
2 *1698:B 7.80182e-05
3 *1697:X 0.000594495
4 *1698:B *851:14 0.000128091
5 *1715:A1 *1715:B1 0.000145523
6 *1715:A1 *847:22 7.39022e-06
7 *1715:A1 *851:14 6.92705e-05
8 *1693:A *1715:A1 0
9 *1714:A3 *1715:A1 0.000216073
10 *1715:C1 *1715:A1 2.15184e-05
11 *1719:D *1715:A1 0.000107496
12 *84:106 *1715:A1 9.75356e-05
13 *86:35 *1715:A1 0.000295981
14 *92:20 *1715:A1 2.25583e-07
*RES
1 *1697:X *1698:B 21.4401 
2 *1697:X *1715:A1 41.4371 
*END

*D_NET *843 0.00217387
*CONN
*I *1705:A1 I *D sky130_fd_sc_hd__a41oi_1
*I *1704:A I *D sky130_fd_sc_hd__and4_1
*I *1700:X O *D sky130_fd_sc_hd__xor2_1
*CAP
1 *1705:A1 0
2 *1704:A 0.000242861
3 *1700:X 0.000560438
4 *843:10 0.000803299
5 *1704:A *1704:B 7.92757e-06
6 *1704:A *1704:D 3.82228e-05
7 *1704:A *1705:A2 0.000147031
8 *1704:A *844:6 1.00981e-05
9 full *1704:A 0.000172631
10 *1703:B *1704:A 8.5294e-06
11 *66:8 *1704:A 7.34948e-06
12 *80:14 *843:10 0.000175485
*RES
1 *1700:X *843:10 21.6674 
2 *843:10 *1704:A 24.8233 
3 *843:10 *1705:A1 9.24915 
*END

*D_NET *844 0.00134706
*CONN
*I *1705:A2 I *D sky130_fd_sc_hd__a41oi_1
*I *1704:B I *D sky130_fd_sc_hd__and4_1
*I *1701:X O *D sky130_fd_sc_hd__xor3_1
*CAP
1 *1705:A2 0.000125185
2 *1704:B 8.22905e-05
3 *1701:X 0.000157142
4 *844:6 0.000364618
5 *1704:B *1704:C 6.08467e-05
6 *1704:B *1704:D 0.000111708
7 *1705:A2 *1705:A3 0.000162888
8 full *1705:A2 1.38521e-05
9 *945:B *1705:A2 1.44611e-05
10 *1703:B *1705:A2 2.39535e-05
11 *1704:A *1704:B 7.92757e-06
12 *1704:A *1705:A2 0.000147031
13 *1704:A *844:6 1.00981e-05
14 *66:8 *844:6 6.50586e-05
*RES
1 *1701:X *844:6 12.7456 
2 *844:6 *1704:B 11.6605 
3 *844:6 *1705:A2 22.8808 
*END

*D_NET *845 0.0028016
*CONN
*I *1705:A3 I *D sky130_fd_sc_hd__a41oi_1
*I *1704:C I *D sky130_fd_sc_hd__and4_1
*I *1702:X O *D sky130_fd_sc_hd__xnor3_1
*CAP
1 *1705:A3 0.00017854
2 *1704:C 4.51842e-05
3 *1702:X 0.000552675
4 *845:10 0.000776399
5 *945:B *1705:A3 4.3116e-06
6 *945:B *845:10 1.47102e-05
7 *1703:B *1705:A3 0.000170162
8 *1703:B *845:10 7.50722e-05
9 *1704:B *1704:C 6.08467e-05
10 *1705:A2 *1705:A3 0.000162888
11 *1711:A2 *845:10 6.92705e-05
12 *86:107 *845:10 5.75508e-05
13 *86:118 *845:10 0.000633988
*RES
1 *1702:X *845:10 24.2083 
2 *845:10 *1704:C 14.4725 
3 *845:10 *1705:A3 18.9542 
*END

*D_NET *846 0.00139131
*CONN
*I *1705:A4 I *D sky130_fd_sc_hd__a41oi_1
*I *1704:D I *D sky130_fd_sc_hd__and4_1
*I *1703:X O *D sky130_fd_sc_hd__xnor3_1
*CAP
1 *1705:A4 0
2 *1704:D 0.000104663
3 *1703:X 0.000232249
4 *846:10 0.000336911
5 *1703:B *1704:D 0.000218014
6 *1703:B *846:10 0.00015337
7 *1704:A *1704:D 3.82228e-05
8 *1704:B *1704:D 0.000111708
9 *1705:B1 *1704:D 0.000196177
*RES
1 *1703:X *846:10 18.3836 
2 *846:10 *1704:D 18.9354 
3 *846:10 *1705:A4 13.7491 
*END

*D_NET *847 0.0075321
*CONN
*I *1711:A3 I *D sky130_fd_sc_hd__a31oi_1
*I *1714:A4 I *D sky130_fd_sc_hd__a41oi_1
*I *1712:D I *D sky130_fd_sc_hd__and4_1
*I *1707:A2 I *D sky130_fd_sc_hd__a21oi_1
*I *1709:A2 I *D sky130_fd_sc_hd__a21oi_1
*I *1708:C I *D sky130_fd_sc_hd__and3_1
*I *1706:A2 I *D sky130_fd_sc_hd__o21ai_0
*I *1705:Y O *D sky130_fd_sc_hd__a41oi_1
*CAP
1 *1711:A3 3.18505e-05
2 *1714:A4 0
3 *1712:D 0
4 *1707:A2 0.000114876
5 *1709:A2 0
6 *1708:C 0
7 *1706:A2 0.000275058
8 *1705:Y 0.000130705
9 *847:54 0.000342926
10 *847:34 0.00043526
11 *847:28 0.000468578
12 *847:24 0.000295695
13 *847:22 0.000492865
14 *847:10 0.000440052
15 *1706:A2 *1707:B1 3.71635e-05
16 *1707:A2 *1710:B 0
17 *1707:A2 *1710:C 0
18 *847:22 *886:43 0.000109331
19 *847:34 *1707:B1 0
20 *847:54 *1707:B1 0
21 *847:54 *849:14 0.000285532
22 *1705:B1 *847:10 0.00030755
23 *1707:A1 *1707:A2 9.74724e-05
24 *1708:A *1706:A2 0.000130942
25 *1708:A *847:28 0.000213739
26 *1708:A *847:34 0.000209372
27 *1708:B *847:28 0.000307037
28 *1711:A2 *1711:A3 5.08751e-05
29 *1714:A3 *847:22 0.000175219
30 *1715:A1 *847:22 7.39022e-06
31 *1716:D *1707:A2 2.79471e-05
32 *1716:D *847:54 0.000102638
33 *1717:D *1707:A2 0.000122019
34 *1717:D *847:54 0.000354423
35 *1718:D *847:34 1.6917e-05
36 *1718:D *847:54 0.000107279
37 *1719:D *847:22 6.50727e-05
38 *83:170 *847:22 0
39 *84:119 *1711:A3 0.000160617
40 *84:119 *847:22 0.000360159
41 *85:34 *847:28 6.50727e-05
42 *85:38 *847:28 3.58044e-05
43 *85:63 *847:24 0.000660368
44 *85:63 *847:28 5.04829e-06
45 *86:10 *847:10 0.000130605
46 *86:107 *1711:A3 0.000199541
47 *86:107 *847:22 0.00011818
48 *92:16 *847:24 1.03403e-05
49 *92:20 *847:22 3.0577e-05
*RES
1 *1705:Y *847:10 23.8184 
2 *847:10 *847:22 18.9723 
3 *847:22 *847:24 7.93324 
4 *847:24 *847:28 8.55102 
5 *847:28 *847:34 7.73196 
6 *847:34 *1706:A2 23.4556 
7 *847:34 *1708:C 9.24915 
8 *847:28 *847:54 10.5523 
9 *847:54 *1709:A2 13.7491 
10 *847:54 *1707:A2 17.5503 
11 *847:24 *1712:D 9.24915 
12 *847:22 *1714:A4 9.24915 
13 *847:10 *1711:A3 11.6364 
*END

*D_NET *848 0.00188333
*CONN
*I *1707:B1 I *D sky130_fd_sc_hd__a21oi_1
*I *1706:Y O *D sky130_fd_sc_hd__o21ai_0
*CAP
1 *1707:B1 0.000742421
2 *1706:Y 0.000742421
3 *1707:B1 *1717:CLK 8.07794e-05
4 *1707:B1 *849:14 0
5 *1706:A1 *1707:B1 2.41483e-05
6 *1706:A2 *1707:B1 3.71635e-05
7 *1706:B1 *1707:B1 6.50586e-05
8 *1709:B1 *1707:B1 0.000150258
9 *1716:D *1707:B1 4.10825e-05
10 *1718:D *1707:B1 0
11 *847:34 *1707:B1 0
12 *847:54 *1707:B1 0
*RES
1 *1706:Y *1707:B1 47.39 
*END

*D_NET *849 0.00360362
*CONN
*I *1715:A2 I *D sky130_fd_sc_hd__a211oi_1
*I *1710:B I *D sky130_fd_sc_hd__nor3_1
*I *1708:X O *D sky130_fd_sc_hd__and3_1
*CAP
1 *1715:A2 0.000293865
2 *1710:B 0.000285606
3 *1708:X 0.000297633
4 *849:14 0.000877104
5 *1710:B *1710:C 3.42931e-05
6 *1710:B *1718:CLK 0.000188943
7 *1710:B *886:49 2.95757e-05
8 *1715:A2 *886:53 6.08467e-05
9 *849:14 *886:53 0.000253916
10 *1707:A2 *1710:B 0
11 *1707:B1 *849:14 0
12 *1708:B *849:14 3.14978e-05
13 *1709:B1 *849:14 3.60268e-05
14 *1715:C1 *1715:A2 0.000472639
15 *1716:D *849:14 8.62625e-06
16 *1717:D *1710:B 0.000136883
17 *1718:D *1710:B 0.000102365
18 *84:8 *1715:A2 0.000171288
19 *84:77 *1710:B 2.9007e-05
20 *84:106 *1715:A2 7.97098e-06
21 *847:54 *849:14 0.000285532
*RES
1 *1708:X *849:14 27.0684 
2 *849:14 *1710:B 27.4755 
3 *849:14 *1715:A2 17.737 
*END

*D_NET *850 0.00112667
*CONN
*I *1710:C I *D sky130_fd_sc_hd__nor3_1
*I *1709:Y O *D sky130_fd_sc_hd__a21oi_1
*CAP
1 *1710:C 0.000383069
2 *1709:Y 0.000383069
3 *1707:A2 *1710:C 0
4 *1710:B *1710:C 3.42931e-05
5 *1718:D *1710:C 1.92172e-05
6 *84:77 *1710:C 0.000307023
7 *840:10 *1710:C 0
*RES
1 *1709:Y *1710:C 34.315 
*END

*D_NET *851 0.00324609
*CONN
*I *1713:B I *D sky130_fd_sc_hd__nor3_1
*I *1711:Y O *D sky130_fd_sc_hd__a31oi_1
*CAP
1 *1713:B 0
2 *1711:Y 0.00110865
3 *851:14 0.00110865
4 *851:14 *1713:C 0.000113968
5 *851:14 *1715:B1 0
6 *851:14 *886:43 0.00041102
7 *945:A *851:14 6.1613e-05
8 *1693:A *851:14 3.92275e-05
9 *1698:B *851:14 0.000128091
10 *1705:B1 *851:14 7.50722e-05
11 *1713:A *851:14 1.00846e-05
12 *1715:A1 *851:14 6.92705e-05
13 *77:16 *851:14 0
14 *86:12 *851:14 9.2346e-06
15 *86:18 *851:14 1.51735e-05
16 *86:35 *851:14 0
17 *92:10 *851:14 9.60366e-05
*RES
1 *1711:Y *851:14 43.7009 
2 *851:14 *1713:B 9.24915 
*END

*D_NET *852 0.0010396
*CONN
*I *1713:C I *D sky130_fd_sc_hd__nor3_1
*I *1712:X O *D sky130_fd_sc_hd__and4_1
*CAP
1 *1713:C 0.000258475
2 *1712:X 0.000258475
3 *1695:A *1713:C 0.00011011
4 *1713:A *1713:C 0.000293521
5 *1718:D *1713:C 5.04829e-06
6 *851:14 *1713:C 0.000113968
*RES
1 *1712:X *1713:C 35.4789 
*END

*D_NET *853 0.00108709
*CONN
*I *1715:B1 I *D sky130_fd_sc_hd__a211oi_1
*I *1714:Y O *D sky130_fd_sc_hd__a41oi_1
*CAP
1 *1715:B1 0.000329079
2 *1714:Y 0.000329079
3 *1693:A *1715:B1 5.22654e-06
4 *1715:A1 *1715:B1 0.000145523
5 *1715:C1 *1715:B1 6.50727e-05
6 *1719:D *1715:B1 2.41483e-05
7 *84:106 *1715:B1 1.67579e-05
8 *86:10 *1715:B1 8.92614e-05
9 *86:12 *1715:B1 6.77678e-05
10 *86:18 *1715:B1 1.51735e-05
11 *851:14 *1715:B1 0
*RES
1 *1714:Y *1715:B1 37.3917 
*END

*D_NET *856 0.0969771
*CONN
*I *1546:DE I *D sky130_fd_sc_hd__edfxtp_1
*I *1520:DE I *D sky130_fd_sc_hd__edfxtp_1
*I *1536:DE I *D sky130_fd_sc_hd__edfxtp_1
*I *1541:DE I *D sky130_fd_sc_hd__edfxtp_1
*I *1548:DE I *D sky130_fd_sc_hd__edfxtp_1
*I *1526:DE I *D sky130_fd_sc_hd__edfxtp_1
*I *1529:DE I *D sky130_fd_sc_hd__edfxtp_1
*I *1539:DE I *D sky130_fd_sc_hd__edfxtp_1
*I *1518:DE I *D sky130_fd_sc_hd__edfxtp_1
*I *1528:DE I *D sky130_fd_sc_hd__edfxtp_1
*I *1537:DE I *D sky130_fd_sc_hd__edfxtp_1
*I *1540:DE I *D sky130_fd_sc_hd__edfxtp_1
*I *1531:DE I *D sky130_fd_sc_hd__edfxtp_1
*I *1517:DE I *D sky130_fd_sc_hd__edfxtp_1
*I *1534:DE I *D sky130_fd_sc_hd__edfxtp_1
*I *1544:DE I *D sky130_fd_sc_hd__edfxtp_1
*I *1523:DE I *D sky130_fd_sc_hd__edfxtp_1
*I *1524:DE I *D sky130_fd_sc_hd__edfxtp_1
*I *1527:DE I *D sky130_fd_sc_hd__edfxtp_1
*I *1535:DE I *D sky130_fd_sc_hd__edfxtp_1
*I *1547:DE I *D sky130_fd_sc_hd__edfxtp_1
*I *1522:DE I *D sky130_fd_sc_hd__edfxtp_1
*I *1532:DE I *D sky130_fd_sc_hd__edfxtp_1
*I *2260:X O *D sky130_fd_sc_hd__buf_12
*CAP
1 *1546:DE 0.000266527
2 *1520:DE 2.21609e-05
3 *1536:DE 0.000122794
4 *1541:DE 0.000341437
5 *1548:DE 3.43238e-05
6 *1526:DE 0.000130327
7 *1529:DE 5.04864e-05
8 *1539:DE 6.03388e-05
9 *1518:DE 0.00132371
10 *1528:DE 0.000145057
11 *1537:DE 0.000114807
12 *1540:DE 0.000412831
13 *1531:DE 0
14 *1517:DE 0
15 *1534:DE 0
16 *1544:DE 0
17 *1523:DE 0.000294695
18 *1524:DE 6.76073e-05
19 *1527:DE 0.00020705
20 *1535:DE 2.30055e-05
21 *1547:DE 1.71478e-05
22 *1522:DE 8.07171e-05
23 *1532:DE 0.000804574
24 *2260:X 0
25 *856:333 0.00164572
26 *856:320 0.0020737
27 *856:308 0.00176562
28 *856:294 0.00357076
29 *856:223 0.00269178
30 *856:212 0.00102419
31 *856:187 0.00253289
32 *856:168 0.00297699
33 *856:149 0.00304345
34 *856:134 0.00203147
35 *856:132 0.00239524
36 *856:130 0.00124351
37 *856:128 0.00264767
38 *856:122 0.00373185
39 *856:118 0.00554386
40 *856:108 0.000478698
41 *856:42 0.00229167
42 *856:32 0.0019552
43 *856:30 0.00208361
44 *856:28 0.00243006
45 *856:24 0.00131085
46 *856:22 0.00213107
47 *856:18 0.00164861
48 *856:14 0.000534804
49 *856:10 0.000736045
50 *856:8 0.00232378
51 *856:6 0.00161706
52 *1520:DE *860:13 3.37073e-06
53 *1522:DE *1522:CLK 2.12674e-05
54 *1523:DE *1235:C 0.000235864
55 *1523:DE *865:220 0.000147014
56 *1524:DE *1524:CLK 3.39728e-05
57 *1526:DE *1526:CLK 2.65667e-05
58 *1528:DE *1528:CLK 6.50727e-05
59 *1532:DE *1532:CLK 0.000148002
60 *1532:DE *1596:CLK 0.000198334
61 *1532:DE *857:414 0.00117624
62 *1535:DE *1535:CLK 2.90638e-06
63 *1536:DE *875:67 2.57365e-05
64 *1536:DE *879:51 7.63123e-05
65 *1536:DE *887:119 4.66492e-05
66 *1537:DE *1604:DE 0
67 *1537:DE *874:99 4.09467e-05
68 *1539:DE *1571:CLK 3.39728e-05
69 *1539:DE *863:73 6.62062e-06
70 *1540:DE *1604:DE 0
71 *1540:DE *874:99 0.000284303
72 *1540:DE *874:103 0
73 *1541:DE *996:C 3.39878e-06
74 *1541:DE *889:87 2.71975e-05
75 *1546:DE *1546:CLK 7.42378e-05
76 *856:8 *857:14 0.00200052
77 *856:8 *861:13 2.72077e-05
78 *856:8 *875:20 0
79 *856:8 *881:8 0
80 *856:8 *881:14 0
81 *856:10 *860:13 0.00035359
82 *856:14 *1392:DE 3.10484e-05
83 *856:14 *860:13 1.51735e-05
84 *856:14 *887:119 0
85 *856:14 *887:132 0
86 *856:18 *2281:A 2.30636e-05
87 *856:18 *875:67 9.81288e-06
88 *856:18 *879:51 0.000307799
89 *856:18 *887:119 8.8047e-05
90 *856:22 *2281:A 0.000159016
91 *856:22 *875:67 0.000201727
92 *856:22 *879:51 5.85071e-05
93 *856:24 *1524:CLK 8.4464e-05
94 *856:28 *1524:CLK 5.44672e-05
95 *856:30 *869:12 0
96 *856:42 *1586:CLK 0
97 *856:42 *857:414 0.0002079
98 *856:108 *879:51 0.000453655
99 *856:108 *887:119 0.00104957
100 *856:118 *858:16 3.66826e-05
101 *856:118 *887:91 1.72347e-05
102 *856:118 *887:93 1.5714e-05
103 *856:122 *895:27 0
104 *856:122 *895:47 0
105 *856:128 *858:24 0.000365205
106 *856:128 *863:73 5.85953e-05
107 *856:128 *875:91 0.000368547
108 *856:130 *857:98 0
109 *856:130 *858:24 0.000754779
110 *856:130 *858:28 0
111 *856:130 *858:34 0
112 *856:130 *865:218 0.000242093
113 *856:130 *865:220 0.000122933
114 *856:130 *865:346 8.92568e-06
115 *856:130 *875:91 0.000143641
116 *856:130 *875:95 0.000241703
117 *856:130 *893:189 0
118 *856:132 *865:220 3.73754e-05
119 *856:132 *893:189 0
120 *856:134 *865:220 0.00013805
121 *856:134 *893:189 0
122 *856:134 *893:191 0
123 *856:149 *867:77 7.97249e-05
124 *856:149 *875:166 0.000134721
125 *856:168 *1142:S 7.19887e-05
126 *856:168 *1534:CLK 6.08467e-05
127 *856:168 *867:77 0.00010675
128 *856:187 *1325:B 7.60183e-05
129 *856:187 *858:497 0
130 *856:187 *859:98 0.000342202
131 *856:187 *876:261 0.000102591
132 *856:187 *891:39 2.65667e-05
133 *856:187 *891:56 3.61993e-05
134 *856:212 *1339:C 2.93387e-05
135 *856:212 *1581:DE 7.66586e-05
136 *856:212 *857:209 2.46787e-05
137 *856:212 *866:84 3.85914e-05
138 *856:212 *874:592 6.24474e-06
139 *856:212 *877:302 0.000331009
140 *856:223 *2305:A 9.14505e-05
141 *856:294 *858:324 3.27616e-06
142 *856:294 *860:34 0.000933196
143 *856:294 *895:47 0
144 *856:294 *897:98 0
145 *856:308 *1102:S 0
146 *856:308 *1548:CLK 1.59362e-06
147 *856:308 *857:319 0
148 *856:308 *871:84 1.97872e-05
149 *856:308 *875:354 3.92805e-05
150 *856:308 *880:149 0
151 *856:308 *889:87 0.000405833
152 *856:320 *1241:C 0.0002204
153 *856:320 *1356:C 0.000161234
154 *856:320 *1593:DE 0.00064471
155 *856:320 *874:312 7.9662e-05
156 *856:320 *875:354 0.000791123
157 *856:320 *879:89 1.0017e-05
158 *856:333 *984:C 0.00021051
159 *856:333 *1174:B 0
160 *856:333 *1238:B 0.000289554
161 *856:333 *2270:A 1.46862e-05
162 *856:333 *857:175 0.000127179
163 *856:333 *860:58 0.000144546
164 *947:B *856:8 1.99882e-05
165 *996:A *1541:DE 0.00014735
166 *996:A *856:308 5.68544e-05
167 *1009:A2 *1532:DE 0
168 *1014:A2 *856:32 0.000251656
169 *1021:A1 *856:10 0
170 *1021:A1 *856:14 0
171 *1041:A2 *856:22 7.33021e-06
172 *1054:B1 *856:42 0
173 *1066:A1 *856:333 0
174 *1075:A0 *856:212 0.000162993
175 *1091:A2 *856:187 2.4512e-05
176 *1099:A1 *856:30 0
177 *1105:A0 *856:130 0.0001805
178 *1106:S1 *856:223 0.00016553
179 *1114:A2 *856:30 0
180 *1121:A0 *856:223 0.000118166
181 *1121:A2 *856:223 0.000207266
182 *1121:A3 *856:223 1.5962e-05
183 *1141:A2 *856:168 1.43439e-05
184 *1142:A0 *856:168 4.89392e-05
185 *1144:A2 *1532:DE 0
186 *1144:A2 *856:42 0
187 *1150:A1 *856:8 0
188 *1151:A2 *856:8 0
189 *1151:A3 *856:8 0
190 *1164:A1 *856:28 4.28856e-07
191 *1206:B *856:333 0.000119182
192 *1232:B *856:22 0.000598769
193 *1325:A *856:187 0.000324151
194 *1367:A *856:22 6.46815e-05
195 *1367:B *856:22 0.00167635
196 *1401:D *856:333 4.3116e-06
197 *1418:D *856:8 0.000368012
198 *1418:D *856:10 0.000173916
199 *1430:D *856:42 0.000286463
200 *1434:D *856:30 0.000192711
201 *1435:D *856:42 0
202 *1494:D *856:333 0.000118485
203 *1517:D *856:187 0.000136279
204 *1518:D *1518:DE 3.42041e-05
205 *1522:D *1522:DE 6.82878e-05
206 *1526:D *1526:DE 0.000131348
207 *1527:D *1527:DE 3.39728e-05
208 *1528:D *1528:DE 3.57426e-05
209 *1531:D *856:212 9.12502e-05
210 *1532:D *1532:DE 6.46815e-05
211 *1534:D *856:168 3.14375e-05
212 *1536:D *1536:DE 5.74027e-05
213 *1540:D *1540:DE 9.70097e-06
214 *1544:D *856:149 3.34557e-05
215 *1547:D *1547:DE 3.39728e-05
216 *1548:D *1548:DE 8.52404e-05
217 *1548:D *856:308 3.20011e-05
218 *1586:D *856:42 1.79703e-05
219 *1596:D *1532:DE 0.000102883
220 *1605:D *1541:DE 0
221 *1616:D *856:22 9.18611e-05
222 *1616:DE *856:10 0.000168706
223 *1620:D *856:30 0
224 *1625:D *1529:DE 1.77213e-05
225 *1625:D *856:320 2.79185e-05
226 *1625:D *856:333 2.44829e-05
227 *1627:D *856:212 0.00021495
228 *1655:D *856:22 2.58616e-05
229 *1656:D *856:130 0
230 *2260:A *856:8 0
231 *10:15 *856:30 4.75721e-06
232 *10:37 *856:30 7.69708e-05
233 *12:48 *1518:DE 2.33103e-06
234 *15:17 *856:130 0.00132469
235 *15:45 *1539:DE 1.91246e-05
236 *24:17 *856:42 2.72876e-05
237 *25:64 *856:320 0
238 *26:22 *856:22 0.000150747
239 *30:17 *856:30 0
240 *30:19 *856:30 0
241 *69:226 *856:223 6.23875e-05
242 *69:232 *856:223 0.000429429
243 *82:22 *856:122 0
244 *82:22 *856:294 0
245 *127:114 *856:8 0.000174034
246 *127:118 *856:8 0.000169125
247 *127:118 *856:10 0.000377004
248 *128:16 *856:8 5.39635e-06
249 *128:20 *856:8 0
250 *128:22 *856:8 3.87022e-06
251 *128:22 *856:10 4.73013e-05
252 *128:32 *856:10 3.87909e-05
253 *276:12 *856:28 3.42853e-05
254 *276:12 *856:30 0
255 *396:22 *856:308 0.000316534
256 *396:22 *856:320 0.000158451
257 *417:109 *1524:DE 8.802e-05
258 *417:191 *856:42 0
259 *418:194 *1539:DE 4.69495e-06
260 *418:215 *856:333 5.8981e-05
261 *427:31 *1524:DE 8.84664e-05
262 *427:64 *856:30 0
263 *427:64 *856:32 0
264 *427:64 *856:42 0
265 *427:88 *1532:DE 0
266 *430:20 *1527:DE 0.000232882
267 *430:22 *1527:DE 0.000314644
268 *430:22 *856:30 0.000129609
269 *430:24 *856:30 0.000123582
270 *430:28 *856:30 0.000253826
271 *430:388 *856:30 0.000404851
272 *430:388 *856:32 0.000237922
273 *430:390 *856:32 0.000389313
274 *430:392 *856:32 0.000169684
275 *430:394 *856:32 0.000227334
276 *430:396 *856:32 0.000137404
277 *430:396 *856:42 0.00017419
278 *430:400 *856:42 8.04032e-05
279 *430:406 *856:42 0.000114861
280 *445:18 *1527:DE 0.000444252
281 *465:34 *856:42 0
282 *481:14 *1539:DE 3.70027e-06
283 *481:14 *856:128 3.97291e-05
284 *485:20 *856:30 4.40858e-05
285 *490:18 *856:42 0
286 *497:18 *1518:DE 0.0029836
287 *497:18 *856:32 4.46199e-05
288 *509:18 *856:30 2.01653e-05
289 *509:18 *856:118 5.41722e-05
290 *541:16 *1523:DE 5.11487e-05
291 *541:16 *1540:DE 3.37073e-06
292 *557:18 *856:30 4.70612e-05
293 *557:18 *856:118 0.000325792
294 *557:18 *856:294 0
295 *823:12 *856:8 0.000275102
*RES
1 *2260:X *856:6 13.7491 
2 *856:6 *856:8 52.908 
3 *856:8 *856:10 17.6116 
4 *856:10 *856:14 10.0693 
5 *856:14 *856:18 4.07513 
6 *856:18 *856:22 48.2987 
7 *856:22 *856:24 7.93324 
8 *856:24 *856:28 14.6517 
9 *856:28 *856:30 43.7725 
10 *856:30 *856:32 20.1031 
11 *856:32 *856:42 44.9494 
12 *856:42 *1532:DE 42.6062 
13 *856:42 *1522:DE 15.8591 
14 *856:32 *1547:DE 14.153 
15 *856:30 *1535:DE 14.153 
16 *856:28 *1527:DE 23.8748 
17 *856:24 *1524:DE 20.485 
18 *856:14 *856:108 12.3942 
19 *856:108 *856:118 9.50987 
20 *856:118 *856:122 6.82808 
21 *856:122 *856:128 10.6544 
22 *856:128 *856:130 40.2428 
23 *856:130 *856:132 1.832 
24 *856:132 *856:134 5.15401 
25 *856:134 *1523:DE 22.9159 
26 *856:134 *856:149 38.8191 
27 *856:149 *1544:DE 9.24915 
28 *856:149 *856:168 29.9968 
29 *856:168 *1534:DE 9.24915 
30 *856:168 *856:187 49.477 
31 *856:187 *1517:DE 9.24915 
32 *856:187 *856:212 44.9655 
33 *856:212 *1531:DE 9.24915 
34 *856:132 *856:223 41.8904 
35 *856:223 *1540:DE 25.9511 
36 *856:223 *1537:DE 16.5396 
37 *856:130 *1528:DE 16.8658 
38 *856:128 *1518:DE 25.4496 
39 *856:122 *1539:DE 17.9886 
40 *856:118 *856:294 9.00537 
41 *856:294 *856:308 41.0805 
42 *856:308 *856:320 35.1914 
43 *856:320 *1529:DE 10.3523 
44 *856:320 *856:333 46.0975 
45 *856:333 *1526:DE 16.8658 
46 *856:308 *1548:DE 14.7076 
47 *856:294 *1541:DE 22.226 
48 *856:108 *1536:DE 13.1133 
49 *856:10 *1520:DE 14.153 
50 *856:8 *1546:DE 19.8438 
*END

*D_NET *857 0.0966076
*CONN
*I *1591:DE I *D sky130_fd_sc_hd__edfxtp_1
*I *1588:DE I *D sky130_fd_sc_hd__edfxtp_1
*I *1599:DE I *D sky130_fd_sc_hd__edfxtp_1
*I *1611:DE I *D sky130_fd_sc_hd__edfxtp_1
*I *1596:DE I *D sky130_fd_sc_hd__edfxtp_1
*I *1586:DE I *D sky130_fd_sc_hd__edfxtp_1
*I *1584:DE I *D sky130_fd_sc_hd__edfxtp_1
*I *1605:DE I *D sky130_fd_sc_hd__edfxtp_1
*I *1593:DE I *D sky130_fd_sc_hd__edfxtp_1
*I *1612:DE I *D sky130_fd_sc_hd__edfxtp_1
*I *1600:DE I *D sky130_fd_sc_hd__edfxtp_1
*I *1603:DE I *D sky130_fd_sc_hd__edfxtp_1
*I *1595:DE I *D sky130_fd_sc_hd__edfxtp_1
*I *1581:DE I *D sky130_fd_sc_hd__edfxtp_1
*I *1598:DE I *D sky130_fd_sc_hd__edfxtp_1
*I *1608:DE I *D sky130_fd_sc_hd__edfxtp_1
*I *1590:DE I *D sky130_fd_sc_hd__edfxtp_1
*I *1592:DE I *D sky130_fd_sc_hd__edfxtp_1
*I *1587:DE I *D sky130_fd_sc_hd__edfxtp_1
*I *1582:DE I *D sky130_fd_sc_hd__edfxtp_1
*I *1601:DE I *D sky130_fd_sc_hd__edfxtp_1
*I *1604:DE I *D sky130_fd_sc_hd__edfxtp_1
*I *1610:DE I *D sky130_fd_sc_hd__edfxtp_1
*I *2261:X O *D sky130_fd_sc_hd__buf_12
*CAP
1 *1591:DE 0.000418221
2 *1588:DE 0
3 *1599:DE 1.66041e-05
4 *1611:DE 5.52902e-05
5 *1596:DE 0.000130003
6 *1586:DE 7.44542e-05
7 *1584:DE 5.96977e-05
8 *1605:DE 0
9 *1593:DE 0.000489775
10 *1612:DE 3.30805e-05
11 *1600:DE 8.57741e-05
12 *1603:DE 0.000291241
13 *1595:DE 0.000655497
14 *1581:DE 0.000244705
15 *1598:DE 3.88815e-05
16 *1608:DE 0.000121046
17 *1590:DE 0
18 *1592:DE 1.71478e-05
19 *1587:DE 0.00115557
20 *1582:DE 8.17896e-05
21 *1601:DE 2.21741e-05
22 *1604:DE 0.00125908
23 *1610:DE 8.80436e-05
24 *2261:X 2.86212e-05
25 *857:414 0.00119974
26 *857:381 0.00214072
27 *857:365 0.00180495
28 *857:363 0.001706
29 *857:353 0.00207336
30 *857:339 0.00443773
31 *857:319 0.00109
32 *857:277 0.0006395
33 *857:275 0.00199113
34 *857:258 0.00171663
35 *857:209 0.00267297
36 *857:190 0.00253105
37 *857:175 0.00140724
38 *857:160 0.00196617
39 *857:108 0.00227289
40 *857:98 0.00289334
41 *857:96 0.00176133
42 *857:59 0.00241782
43 *857:53 0.00140165
44 *857:45 0.0027154
45 *857:43 0.0017111
46 *857:39 0.00135749
47 *857:35 0.000889037
48 *857:27 0.00416903
49 *857:14 0.00175954
50 *857:8 0.000986982
51 *1581:DE *859:98 3.72315e-05
52 *1581:DE *882:304 2.48274e-05
53 *1581:DE *891:29 0
54 *1584:DE *874:244 3.76187e-05
55 *1586:DE *1586:CLK 1.38198e-05
56 *1587:DE *978:B 0.000157383
57 *1587:DE *1352:C 0.000124903
58 *1587:DE *1592:CLK 2.95757e-05
59 *1587:DE *859:39 0
60 *1587:DE *867:67 0.000102632
61 *1587:DE *875:166 5.56846e-05
62 *1591:DE *1591:CLK 0.000173578
63 *1591:DE *898:66 0
64 *1592:DE *1592:CLK 3.39728e-05
65 *1593:DE *1356:C 2.64016e-05
66 *1593:DE *874:306 6.43474e-05
67 *1593:DE *874:312 0.00049779
68 *1593:DE *875:354 8.39925e-05
69 *1593:DE *889:106 0
70 *1595:DE *1403:DE 0.000373432
71 *1595:DE *882:304 0.000143973
72 *1595:DE *882:320 0.000185404
73 *1595:DE *891:254 0.000417478
74 *1598:DE *859:77 3.34544e-06
75 *1601:DE *904:147 3.37073e-06
76 *1603:DE *1603:CLK 6.08467e-05
77 *1603:DE *860:82 1.45319e-05
78 *1603:DE *865:346 0
79 *1604:DE *1188:B 4.90829e-05
80 *1604:DE *1252:B 3.37073e-06
81 *1604:DE *1633:CLK 0.000131416
82 *1604:DE *1636:DE 0.000306865
83 *1604:DE *863:100 0
84 *1604:DE *868:71 0
85 *1604:DE *874:99 0
86 *1604:DE *877:54 0
87 *1604:DE *877:71 0
88 *1604:DE *877:84 0
89 *1608:DE *867:141 3.46033e-05
90 *1610:DE *1418:CLK 7.8414e-06
91 *1612:DE *889:106 0
92 *857:27 *1150:S0 0.000196127
93 *857:27 *1418:CLK 9.87198e-05
94 *857:27 *1546:CLK 1.9101e-05
95 *857:27 *1642:CLK 9.91565e-05
96 *857:27 *858:12 0.00021439
97 *857:27 *875:34 0.000145943
98 *857:27 *875:44 0
99 *857:27 *879:30 0.000187625
100 *857:27 *887:156 0.000112693
101 *857:27 *906:10 4.84257e-05
102 *857:35 *2281:A 6.8054e-05
103 *857:35 *858:12 6.05814e-05
104 *857:35 *877:21 0.000117872
105 *857:35 *879:30 0.000572748
106 *857:35 *879:32 6.38245e-05
107 *857:35 *887:119 3.93117e-06
108 *857:35 *887:132 5.65929e-05
109 *857:35 *887:143 3.36636e-05
110 *857:35 *887:156 2.57753e-05
111 *857:39 *1584:CLK 0
112 *857:39 *874:40 0
113 *857:39 *877:21 0.00015849
114 *857:39 *884:268 3.88213e-05
115 *857:43 *903:186 0
116 *857:45 *1294:C 0
117 *857:45 *1326:B 0
118 *857:45 *1488:DE 5.80092e-05
119 *857:45 *1550:DE 0
120 *857:45 *865:199 0
121 *857:45 *865:315 0
122 *857:45 *874:44 0.000114156
123 *857:45 *874:58 0
124 *857:45 *877:21 0
125 *857:45 *877:44 0.000173794
126 *857:45 *877:54 3.00073e-05
127 *857:45 *884:214 0.000148688
128 *857:45 *884:223 7.41203e-05
129 *857:45 *884:268 0
130 *857:45 *893:128 0.00022567
131 *857:45 *893:139 0.000356126
132 *857:45 *893:154 0.000159347
133 *857:53 *893:109 0.000106243
134 *857:53 *893:128 5.56367e-05
135 *857:59 *1633:CLK 4.91394e-06
136 *857:59 *874:81 0
137 *857:59 *877:54 0
138 *857:59 *893:76 6.85e-05
139 *857:96 *1315:B 0.000151436
140 *857:96 *1315:C 4.46209e-05
141 *857:96 *875:112 0.000319954
142 *857:96 *893:128 2.16355e-05
143 *857:98 *858:28 0.000346475
144 *857:108 *1592:CLK 0.000222699
145 *857:108 *1619:DE 0.000138422
146 *857:108 *858:28 3.31882e-05
147 *857:108 *858:34 0.000893975
148 *857:108 *867:50 0
149 *857:108 *867:67 0.000214073
150 *857:108 *874:354 3.66868e-05
151 *857:108 *875:118 8.51791e-05
152 *857:108 *875:120 0.000167665
153 *857:160 *892:281 0.000111708
154 *857:175 *1238:B 7.41203e-05
155 *857:175 *2270:A 0
156 *857:175 *2295:A 4.54052e-05
157 *857:175 *862:60 0.000261183
158 *857:175 *875:189 0.000466151
159 *857:190 *2295:A 0.000505208
160 *857:190 *859:67 6.85238e-06
161 *857:190 *862:60 0.00179471
162 *857:209 *2295:A 0.000368703
163 *857:209 *881:216 0.000118356
164 *857:209 *882:304 4.90246e-05
165 *857:277 *1644:CLK 0
166 *857:277 *889:106 0
167 *857:319 *996:C 0.0003918
168 *857:319 *1126:S0 0
169 *857:319 *1161:S0 0
170 *857:319 *1349:C 0.000492507
171 *857:319 *1413:DE 0.000387523
172 *857:319 *1644:CLK 0
173 *857:319 *1644:DE 3.29812e-05
174 *857:319 *860:48 0.000101823
175 *857:319 *871:65 0
176 *857:339 *865:16 0.000482754
177 *857:353 *1524:CLK 6.34821e-05
178 *857:353 *2289:A 2.37478e-05
179 *857:353 *873:42 9.01708e-05
180 *857:353 *885:10 8.67371e-05
181 *857:353 *885:19 5.82465e-05
182 *857:353 *885:34 9.33938e-05
183 *857:353 *885:135 5.70255e-05
184 *857:363 *1631:CLK 0.000366326
185 *857:363 *873:42 2.89857e-05
186 *857:363 *884:98 0.000137879
187 *857:363 *884:100 7.44184e-05
188 *857:363 *884:117 6.34651e-06
189 *857:365 *869:44 7.8756e-07
190 *857:365 *884:117 0.000321592
191 *857:381 *1394:CLK 8.25771e-05
192 *857:381 *869:44 0.000307344
193 *857:414 *1586:CLK 7.14746e-05
194 *943:A *857:14 0.000169943
195 *978:A *1587:DE 0.000187091
196 *995:A *1604:DE 0.000493666
197 *999:A *1608:DE 0.000132918
198 *999:A *857:175 9.85391e-05
199 *1019:A2 *857:339 0
200 *1036:A3 *1587:DE 0.000361036
201 *1059:A2 *857:339 0.000239612
202 *1060:A2 *857:160 0.000380865
203 *1062:A1 *857:160 0.00017529
204 *1075:A0 *857:209 1.5714e-05
205 *1076:A0 *1595:DE 0
206 *1076:A2 *1595:DE 0.000168194
207 *1083:A1 *857:414 0
208 *1083:A2 *857:414 1.68608e-05
209 *1094:A1 *857:414 0
210 *1094:A2 *857:414 0
211 *1129:A2 *857:43 0.000472525
212 *1129:A2 *857:258 0.00277426
213 *1129:A2 *857:275 0.00232381
214 *1144:A2 *857:414 6.06688e-05
215 *1155:A0 *857:59 1.21967e-05
216 *1256:A *1608:DE 4.13873e-06
217 *1262:C *857:45 0.000132817
218 *1264:A *857:45 0.000733727
219 *1394:D *857:381 0.000191474
220 *1395:D *1587:DE 8.62625e-06
221 *1454:D *857:45 0.000152163
222 *1456:D *857:39 4.23622e-05
223 *1488:D *857:45 0.000671687
224 *1496:D *857:98 0
225 *1496:D *857:108 0
226 *1528:D *857:108 4.24662e-05
227 *1532:DE *857:414 0.00117624
228 *1537:DE *1604:DE 0
229 *1540:D *1604:DE 0
230 *1540:DE *1604:DE 0
231 *1548:D *1593:DE 0.000139817
232 *1584:D *857:35 0
233 *1586:D *857:414 9.11335e-06
234 *1588:D *857:363 3.43269e-05
235 *1590:D *857:160 6.68671e-05
236 *1590:D *857:175 8.70942e-05
237 *1596:D *1596:DE 3.15154e-05
238 *1598:D *1598:DE 7.12632e-06
239 *1599:D *1599:DE 3.44641e-05
240 *1599:D *857:363 0.000343008
241 *1603:D *1603:DE 3.14375e-05
242 *1611:D *857:365 0.000417429
243 *1643:D *857:365 0.000488266
244 *1671:A *857:14 0.000180669
245 *1671:B *857:14 1.14979e-05
246 *2260:A *857:14 0
247 *2265:A *857:14 5.2504e-06
248 *2284:A *857:14 0.000569314
249 *13:49 *1604:DE 0
250 *16:60 *1604:DE 0
251 *25:39 *1593:DE 0
252 *28:63 *857:414 0
253 *32:15 *857:175 1.66771e-05
254 *67:18 *857:363 0.000139877
255 *82:22 *857:258 2.00576e-06
256 *125:23 *857:8 6.08467e-05
257 *126:10 *857:14 0
258 *127:39 *1591:DE 5.38612e-06
259 *127:39 *857:353 0.000512411
260 *127:45 *857:353 0.000504845
261 *127:47 *857:365 0
262 *127:53 *1611:DE 0
263 *127:53 *857:365 0
264 *127:53 *857:381 0
265 *128:20 *857:14 7.88053e-05
266 *128:20 *857:27 6.70294e-05
267 *128:22 *857:27 6.50589e-05
268 *128:32 *857:339 0
269 *128:38 *857:353 0.000171966
270 *128:44 *857:353 0.000357182
271 *128:56 *857:381 4.80299e-05
272 *334:14 *1582:DE 6.82878e-05
273 *334:14 *857:53 0
274 *396:22 *1593:DE 0.000474663
275 *396:22 *857:277 5.71561e-05
276 *396:22 *857:319 0.000159959
277 *417:109 *857:353 0
278 *417:279 *857:14 0.000574767
279 *418:194 *1603:DE 0.000237129
280 *418:194 *857:98 0.000543317
281 *418:215 *857:175 0.000452753
282 *419:61 *857:363 7.0995e-05
283 *419:71 *857:363 0.000144531
284 *419:81 *857:365 0.000100559
285 *419:89 *857:365 7.07115e-06
286 *427:41 *857:363 8.36586e-06
287 *427:52 *857:363 0
288 *427:58 *857:363 0
289 *459:18 *857:45 4.26659e-05
290 *505:16 *857:363 0.000332291
291 *551:14 *857:59 0.000111326
292 *856:8 *857:14 0.00200052
293 *856:42 *857:414 0.0002079
294 *856:130 *857:98 0
295 *856:212 *1581:DE 7.66586e-05
296 *856:212 *857:209 2.46787e-05
297 *856:308 *857:319 0
298 *856:320 *1593:DE 0.00064471
299 *856:333 *857:175 0.000127179
*RES
1 *2261:X *857:8 14.4725 
2 *857:8 *857:14 44.155 
3 *857:14 *1610:DE 10.9069 
4 *857:14 *857:27 29.2808 
5 *857:27 *857:35 17.7948 
6 *857:35 *857:39 10.8067 
7 *857:39 *857:43 4.03059 
8 *857:43 *857:45 49.7936 
9 *857:45 *857:53 9.18239 
10 *857:53 *857:59 31.5693 
11 *857:59 *1604:DE 49.0098 
12 *857:59 *1601:DE 14.153 
13 *857:53 *1582:DE 11.3591 
14 *857:45 *857:96 34.126 
15 *857:96 *857:98 13.4591 
16 *857:98 *857:108 39.6988 
17 *857:108 *1587:DE 46.1549 
18 *857:108 *1592:DE 14.153 
19 *857:98 *857:160 40.8928 
20 *857:160 *1590:DE 9.24915 
21 *857:160 *857:175 29.0021 
22 *857:175 *1608:DE 20.5735 
23 *857:175 *857:190 3.33896 
24 *857:190 *1598:DE 17.9004 
25 *857:190 *857:209 10.9547 
26 *857:209 *1581:DE 20.219 
27 *857:209 *1595:DE 45.8475 
28 *857:96 *1603:DE 21.1893 
29 *857:39 *857:258 3.64492 
30 *857:258 *1600:DE 18.7309 
31 *857:258 *857:275 6.47828 
32 *857:275 *857:277 3.493 
33 *857:277 *1612:DE 14.5317 
34 *857:277 *1593:DE 36.1003 
35 *857:275 *857:319 42.0401 
36 *857:319 *1605:DE 9.24915 
37 *857:35 *1584:DE 15.4069 
38 *857:27 *857:339 13.5951 
39 *857:339 *857:353 43.7656 
40 *857:353 *857:363 34.7129 
41 *857:363 *857:365 26.5395 
42 *857:365 *857:381 31.3995 
43 *857:381 *1586:DE 11.3591 
44 *857:381 *857:414 48.3643 
45 *857:414 *1596:DE 11.8112 
46 *857:365 *1611:DE 15.2645 
47 *857:363 *1599:DE 14.153 
48 *857:353 *1588:DE 9.24915 
49 *857:339 *1591:DE 24.1416 
*END

*D_NET *858 0.117848
*CONN
*I *1383:DE I *D sky130_fd_sc_hd__edfxtp_1
*I *1653:DE I *D sky130_fd_sc_hd__edfxtp_1
*I *1381:DE I *D sky130_fd_sc_hd__edfxtp_1
*I *1388:DE I *D sky130_fd_sc_hd__edfxtp_1
*I *1658:DE I *D sky130_fd_sc_hd__edfxtp_1
*I *1661:DE I *D sky130_fd_sc_hd__edfxtp_1
*I *1645:DE I *D sky130_fd_sc_hd__edfxtp_1
*I *1659:DE I *D sky130_fd_sc_hd__edfxtp_1
*I *1657:DE I *D sky130_fd_sc_hd__edfxtp_1
*I *1378:DE I *D sky130_fd_sc_hd__edfxtp_1
*I *1649:DE I *D sky130_fd_sc_hd__edfxtp_1
*I *1382:DE I *D sky130_fd_sc_hd__edfxtp_1
*I *1385:DE I *D sky130_fd_sc_hd__edfxtp_1
*I *1664:DE I *D sky130_fd_sc_hd__edfxtp_1
*I *1379:DE I *D sky130_fd_sc_hd__edfxtp_1
*I *1646:DE I *D sky130_fd_sc_hd__edfxtp_1
*I *1648:DE I *D sky130_fd_sc_hd__edfxtp_1
*I *1655:DE I *D sky130_fd_sc_hd__edfxtp_1
*I *1652:DE I *D sky130_fd_sc_hd__edfxtp_1
*I *1663:DE I *D sky130_fd_sc_hd__edfxtp_1
*I *1387:DE I *D sky130_fd_sc_hd__edfxtp_1
*I *1650:DE I *D sky130_fd_sc_hd__edfxtp_1
*I *1660:DE I *D sky130_fd_sc_hd__edfxtp_1
*I *1654:DE I *D sky130_fd_sc_hd__edfxtp_1
*I *1656:DE I *D sky130_fd_sc_hd__edfxtp_1
*I *1384:DE I *D sky130_fd_sc_hd__edfxtp_1
*I *1662:DE I *D sky130_fd_sc_hd__edfxtp_1
*I *1651:DE I *D sky130_fd_sc_hd__edfxtp_1
*I *1380:DE I *D sky130_fd_sc_hd__edfxtp_1
*I *1377:DE I *D sky130_fd_sc_hd__edfxtp_1
*I *2262:X O *D sky130_fd_sc_hd__buf_12
*CAP
1 *1383:DE 0.000476536
2 *1653:DE 2.37667e-05
3 *1381:DE 2.21721e-05
4 *1388:DE 4.0137e-05
5 *1658:DE 0.000157889
6 *1661:DE 6.43792e-05
7 *1645:DE 1.69917e-05
8 *1659:DE 0
9 *1657:DE 0.000110169
10 *1378:DE 0.00113328
11 *1649:DE 0.000223083
12 *1382:DE 0
13 *1385:DE 0
14 *1664:DE 0
15 *1379:DE 0.00015794
16 *1646:DE 0
17 *1648:DE 0.000141559
18 *1655:DE 0.000618226
19 *1652:DE 2.21609e-05
20 *1663:DE 0
21 *1387:DE 0
22 *1650:DE 1.47493e-05
23 *1660:DE 0.00110919
24 *1654:DE 0.00115882
25 *1656:DE 2.37334e-05
26 *1384:DE 0.000109298
27 *1662:DE 0.00147044
28 *1651:DE 8.47759e-05
29 *1380:DE 0.0015777
30 *1377:DE 0.000728858
31 *2262:X 0.000855346
32 *858:497 0.00146358
33 *858:480 0.0022142
34 *858:470 0.0015781
35 *858:462 0.00141078
36 *858:443 0.00130203
37 *858:441 0.00133911
38 *858:431 0.00146719
39 *858:408 0.00197929
40 *858:406 0.000939556
41 *858:402 0.00168491
42 *858:379 0.00130263
43 *858:364 0.00220904
44 *858:337 0.00248159
45 *858:333 0.00181109
46 *858:324 0.00114838
47 *858:263 0.00095012
48 *858:219 0.00255252
49 *858:213 0.00200248
50 *858:197 0.00195208
51 *858:183 0.00186734
52 *858:173 0.00162804
53 *858:165 0.00196324
54 *858:157 0.00231504
55 *858:85 0.00321285
56 *858:51 0.00168211
57 *858:47 0.00275198
58 *858:34 0.00235865
59 *858:28 0.000731728
60 *858:24 0.00215843
61 *858:18 0.00288977
62 *858:16 0.0020469
63 *858:12 0.00238114
64 *1377:DE *1377:CLK 9.93106e-06
65 *1377:DE *1496:DE 2.16355e-05
66 *1378:DE *889:12 0
67 *1378:DE *889:174 4.22338e-05
68 *1379:DE *867:16 5.82396e-05
69 *1383:DE *1383:CLK 9.79114e-05
70 *1383:DE *878:148 5.68225e-06
71 *1384:DE *1192:B 6.89724e-06
72 *1645:DE *1645:CLK 7.62718e-06
73 *1648:DE *1648:CLK 3.42041e-05
74 *1649:DE *1025:S1 3.77568e-05
75 *1649:DE *1649:CLK 1.32124e-05
76 *1650:DE *894:173 3.44641e-05
77 *1654:DE *1494:CLK 9.12416e-06
78 *1654:DE *892:281 1.91391e-05
79 *1655:DE *884:339 6.40445e-05
80 *1658:DE *1658:CLK 2.16355e-05
81 *1660:DE *894:41 3.44641e-05
82 *1662:DE *1662:CLK 0.000176816
83 *858:12 *2289:A 0
84 *858:12 *860:34 0
85 *858:12 *887:156 0.000350854
86 *858:16 *1379:CLK 0.00025389
87 *858:16 *875:397 8.6538e-05
88 *858:16 *887:81 0
89 *858:16 *887:91 4.14841e-05
90 *858:16 *887:93 0.000217479
91 *858:18 *865:346 1.28704e-05
92 *858:18 *880:51 0
93 *858:24 *865:346 0
94 *858:24 *875:91 0.000124137
95 *858:24 *880:51 0
96 *858:24 *880:53 0
97 *858:34 *1496:DE 6.13051e-05
98 *858:47 *1491:DE 9.93089e-05
99 *858:47 *1619:DE 0
100 *858:47 *1651:CLK 0.000141871
101 *858:47 *865:220 0.00161525
102 *858:47 *875:120 0
103 *858:85 *1576:DE 0.000111091
104 *858:85 *903:106 2.33958e-05
105 *858:157 *880:51 0.000419593
106 *858:165 *2288:A 0
107 *858:165 *884:189 3.12828e-05
108 *858:173 *903:186 3.31811e-05
109 *858:183 *1663:CLK 6.91232e-06
110 *858:183 *865:57 0.000222894
111 *858:183 *884:14 3.24972e-05
112 *858:197 *1663:CLK 9.22151e-06
113 *858:197 *884:31 0
114 *858:197 *884:33 0
115 *858:197 *884:48 0
116 *858:197 *884:50 0
117 *858:213 *1419:CLK 0
118 *858:213 *1515:CLK 0.00019042
119 *858:213 *1515:DE 6.49708e-05
120 *858:213 *884:50 1.10793e-05
121 *858:219 *1387:CLK 0.00016553
122 *858:263 *865:57 0.000108509
123 *858:324 *1664:CLK 0.000113968
124 *858:324 *860:34 0
125 *858:324 *887:79 1.10793e-05
126 *858:324 *887:81 3.04443e-05
127 *858:337 *1100:S0 0.00056793
128 *858:337 *1100:S1 0
129 *858:337 *887:248 0
130 *858:364 *1382:CLK 3.36712e-05
131 *858:364 *887:258 3.37073e-06
132 *858:364 *906:64 0.000305584
133 *858:379 *1382:CLK 6.0494e-05
134 *858:379 *876:104 0.000307407
135 *858:379 *888:173 4.0315e-05
136 *858:402 *880:358 5.25742e-05
137 *858:402 *888:217 3.86813e-05
138 *858:402 *888:219 4.69495e-06
139 *858:406 *1653:CLK 0
140 *858:406 *876:376 0.000113497
141 *858:406 *888:238 7.2401e-05
142 *858:406 *888:244 0
143 *858:406 *906:117 3.31736e-05
144 *858:431 *876:125 0.000236507
145 *858:431 *881:63 3.5853e-05
146 *858:431 *881:379 0.00183465
147 *858:441 *1160:S1 0.000242486
148 *858:441 *876:125 3.55694e-05
149 *858:441 *881:63 0.000458508
150 *858:441 *889:57 7.86219e-05
151 *858:441 *889:68 0.000136364
152 *858:443 *1465:CLK 0
153 *858:443 *1580:CLK 6.11006e-05
154 *858:443 *889:57 5.1493e-06
155 *858:462 *1065:S1 0.000137022
156 *858:462 *890:242 1.22026e-05
157 *858:462 *905:36 0.00147283
158 *858:470 *890:242 1.83409e-05
159 *858:470 *905:36 0.000738387
160 *858:480 *1565:CLK 0
161 *858:480 *1659:CLK 0.000201144
162 *858:480 *891:324 0.000139467
163 *858:497 *1325:C 0
164 *858:497 *866:63 0.000137136
165 *858:497 *876:261 0
166 *858:497 *891:62 0
167 *858:497 *905:72 0.000667638
168 *966:B *1649:DE 1.32841e-05
169 *978:A *858:47 3.23416e-05
170 *1010:A2 *858:157 0.000570491
171 *1010:S1 *858:157 6.50586e-05
172 *1012:A1 *858:157 9.9028e-05
173 *1017:A1 *858:337 0
174 *1020:A1 *858:16 0
175 *1021:A0 *858:16 0
176 *1021:A1 *858:16 0
177 *1021:A2 *858:16 0
178 *1025:A1 *858:406 0.000117524
179 *1031:A3 *1660:DE 1.28704e-05
180 *1031:A3 *858:219 4.58124e-05
181 *1031:S0 *1660:DE 0.000769131
182 *1042:A1 *1652:DE 3.37073e-06
183 *1065:A1 *858:470 4.3892e-05
184 *1065:A2 *858:470 0
185 *1075:A2 *858:497 0
186 *1081:A2 *1660:DE 0.000781286
187 *1096:A0 *858:197 7.50722e-05
188 *1097:A0 *858:197 0.000309075
189 *1100:A0 *858:337 2.9199e-05
190 *1100:A1 *858:337 6.80719e-05
191 *1100:A2 *858:333 0.000104348
192 *1102:A1 *858:337 0
193 *1105:A0 *858:34 0
194 *1114:A2 *858:462 0.00067927
195 *1120:A2 *1380:DE 0.000386246
196 *1156:S0 *858:197 0.000175799
197 *1157:A0 *858:197 0.000175848
198 *1157:A0 *858:213 0
199 *1181:A *858:470 0
200 *1192:C *1384:DE 0.000169169
201 *1192:C *1662:DE 9.18559e-06
202 *1192:C *858:85 9.25476e-05
203 *1193:A *858:337 0.000122083
204 *1193:B *858:337 8.01565e-05
205 *1195:A *858:197 7.63195e-05
206 *1204:A *1655:DE 9.29508e-05
207 *1204:A *858:263 5.22602e-05
208 *1207:B *1655:DE 0.000363205
209 *1211:B *858:480 0
210 *1219:B *858:18 0.000414903
211 *1228:B *858:443 8.56325e-05
212 *1283:C *858:18 9.00198e-05
213 *1358:A *858:165 0
214 *1363:B *858:85 0.00042926
215 *1365:B *858:431 0.000325658
216 *1367:A *1655:DE 5.21744e-05
217 *1375:B *858:197 0.000399228
218 *1379:D *1379:DE 3.14375e-05
219 *1379:D *858:18 0
220 *1381:D *1381:DE 3.39878e-06
221 *1381:D *858:431 0.000155754
222 *1382:D *858:364 3.15447e-05
223 *1383:D *1383:DE 8.18316e-05
224 *1387:D *858:219 3.14375e-05
225 *1388:D *1388:DE 8.11133e-05
226 *1388:D *858:443 0.000332202
227 *1457:D *858:406 0.000123582
228 *1458:D *858:219 0
229 *1465:D *858:443 2.64881e-05
230 *1467:D *858:497 2.38092e-05
231 *1469:D *1661:DE 8.12363e-05
232 *1469:D *858:480 0.000394813
233 *1480:D *1384:DE 0.000162042
234 *1480:D *858:85 1.07248e-05
235 *1481:D *858:364 0
236 *1492:D *1655:DE 0.000292024
237 *1492:D *858:263 0.000262725
238 *1500:D *1660:DE 0
239 *1501:D *858:470 0
240 *1503:D *858:197 4.48783e-05
241 *1506:DE *1378:DE 0
242 *1511:DE *1383:DE 0.00120171
243 *1511:DE *858:402 0.000392581
244 *1528:D *858:34 8.81353e-05
245 *1528:D *858:47 0.000226008
246 *1549:D *858:497 0
247 *1646:D *858:157 9.17835e-05
248 *1646:D *858:165 7.33113e-05
249 *1648:D *858:173 1.5714e-05
250 *1649:D *1649:DE 0.000127805
251 *1649:D *858:402 3.02567e-05
252 *1651:D *1651:DE 6.61218e-05
253 *1653:D *1378:DE 5.39635e-06
254 *1653:D *858:406 3.87963e-05
255 *1653:D *858:408 4.31485e-06
256 *1654:D *1654:DE 0.000137987
257 *1655:D *1655:DE 3.42041e-05
258 *1656:D *858:28 0.00013419
259 *1658:D *1658:DE 3.15154e-05
260 *1659:D *858:480 3.15154e-05
261 *1660:D *1660:DE 9.42582e-05
262 *1661:D *858:470 0.000122858
263 *1662:D *1662:DE 0
264 *1663:D *858:197 0.000611205
265 *1664:D *858:324 0.000147623
266 *1:48 *858:497 5.40636e-05
267 *2:45 *1655:DE 8.40449e-05
268 *2:67 *1655:DE 9.34206e-05
269 *4:82 *1657:DE 6.50847e-05
270 *4:82 *858:443 0.000332955
271 *6:70 *858:497 0.000226399
272 *12:17 *858:165 0
273 *12:26 *858:165 0
274 *14:55 *1378:DE 5.76259e-05
275 *15:17 *858:24 0.000355308
276 *15:30 *858:24 0.000357421
277 *27:44 *858:402 9.79693e-06
278 *29:28 *858:47 7.22382e-05
279 *29:65 *858:47 7.02319e-05
280 *30:64 *858:183 1.94614e-05
281 *30:64 *858:263 0.00041819
282 *30:68 *858:183 0.000117277
283 *31:53 *858:406 9.01449e-05
284 *68:239 *858:197 0.000133071
285 *69:65 *858:219 0
286 *69:81 *1660:DE 0
287 *70:40 *1655:DE 0
288 *70:44 *858:183 0
289 *70:63 *858:213 0.000323071
290 *121:106 *858:379 0.000198937
291 *121:148 *858:443 0
292 *121:176 *858:379 0.000966556
293 *121:176 *858:402 0.000358228
294 *121:180 *858:406 0
295 *124:83 *858:431 1.71028e-05
296 *127:53 *858:219 0
297 *128:32 *858:12 2.53122e-05
298 *128:56 *858:219 0
299 *402:14 *858:219 0
300 *417:353 *1378:DE 0
301 *417:353 *858:406 0
302 *417:355 *1378:DE 0
303 *417:363 *1378:DE 7.87135e-05
304 *417:426 *858:406 0
305 *418:188 *858:18 0.000114495
306 *418:377 *858:364 3.02567e-05
307 *418:383 *858:379 0.000311072
308 *418:449 *858:443 0.000641845
309 *418:459 *858:443 2.02035e-05
310 *418:518 *858:431 2.71808e-05
311 *423:42 *1648:DE 4.35492e-05
312 *423:42 *858:165 0
313 *423:46 *858:165 0
314 *423:175 *858:85 0
315 *423:368 *858:441 0.0011585
316 *423:368 *858:443 0.000416594
317 *423:381 *858:462 1.32841e-05
318 *423:381 *858:470 2.42906e-05
319 *423:385 *858:470 5.37063e-05
320 *423:395 *1661:DE 7.261e-05
321 *423:395 *858:470 0.000242614
322 *423:395 *858:480 0.00132571
323 *424:89 *858:197 0
324 *424:99 *858:197 0
325 *424:99 *858:213 0.000274216
326 *441:10 *858:337 0
327 *449:14 *1383:DE 0.00107718
328 *449:14 *858:402 0.00053241
329 *457:16 *858:85 0.000493103
330 *465:34 *1654:DE 0.00299689
331 *465:34 *858:24 0.000427183
332 *469:18 *1654:DE 0.000522711
333 *469:18 *858:24 8.43934e-05
334 *485:20 *858:173 0.000310952
335 *493:16 *1660:DE 2.67687e-05
336 *503:18 *858:197 5.49413e-05
337 *525:18 *1380:DE 0.000137573
338 *533:18 *858:379 9.03549e-05
339 *537:16 *1383:DE 3.79622e-05
340 *537:16 *858:379 0.00166681
341 *537:16 *858:402 0.000320261
342 *763:20 *1377:DE 8.91253e-05
343 *856:118 *858:16 3.66826e-05
344 *856:128 *858:24 0.000365205
345 *856:130 *858:24 0.000754779
346 *856:130 *858:28 0
347 *856:130 *858:34 0
348 *856:187 *858:497 0
349 *856:294 *858:324 3.27616e-06
350 *857:27 *858:12 0.00021439
351 *857:35 *858:12 6.05814e-05
352 *857:98 *858:28 0.000346475
353 *857:108 *858:28 3.31882e-05
354 *857:108 *858:34 0.000893975
*RES
1 *2262:X *858:12 25.2722 
2 *858:12 *858:16 34.4761 
3 *858:16 *858:18 19.6878 
4 *858:18 *858:24 30.9089 
5 *858:24 *858:28 10.3914 
6 *858:28 *858:34 22.2832 
7 *858:34 *1377:DE 24.772 
8 *858:34 *858:47 42.5689 
9 *858:47 *858:51 4.87861 
10 *858:51 *1380:DE 43.098 
11 *858:51 *1651:DE 11.3591 
12 *858:47 *858:85 13.6132 
13 *858:85 *1662:DE 45.1196 
14 *858:85 *1384:DE 17.7854 
15 *858:28 *1656:DE 14.153 
16 *858:24 *1654:DE 23.6843 
17 *858:18 *858:157 37.6978 
18 *858:157 *858:165 26.8651 
19 *858:165 *858:173 10.0072 
20 *858:173 *858:183 17.5287 
21 *858:183 *858:197 47.4614 
22 *858:197 *858:213 28.8664 
23 *858:213 *858:219 36.838 
24 *858:219 *1660:DE 49.3518 
25 *858:219 *1650:DE 14.153 
26 *858:213 *1387:DE 9.24915 
27 *858:183 *1663:DE 9.24915 
28 *858:173 *858:263 12.6408 
29 *858:263 *1652:DE 14.153 
30 *858:263 *1655:DE 34.2561 
31 *858:165 *1648:DE 16.8033 
32 *858:157 *1646:DE 9.24915 
33 *858:16 *1379:DE 17.4204 
34 *858:12 *858:324 14.2213 
35 *858:324 *1664:DE 9.24915 
36 *858:324 *858:333 22.7959 
37 *858:333 *858:337 33.7386 
38 *858:337 *1385:DE 9.24915 
39 *858:337 *858:364 42.1758 
40 *858:364 *1382:DE 9.24915 
41 *858:364 *858:379 20.9757 
42 *858:379 *1649:DE 22.1376 
43 *858:379 *858:402 10.6472 
44 *858:402 *858:406 28.2473 
45 *858:406 *858:408 0.378612 
46 *858:408 *1378:DE 42.3617 
47 *858:408 *858:431 14.976 
48 *858:431 *858:441 33.7375 
49 *858:441 *858:443 26.1242 
50 *858:443 *1657:DE 16.616 
51 *858:443 *858:462 10.1055 
52 *858:462 *858:470 32.0421 
53 *858:470 *858:480 33.6065 
54 *858:480 *1659:DE 9.24915 
55 *858:480 *858:497 47.2545 
56 *858:497 *1645:DE 14.153 
57 *858:470 *1661:DE 16.2691 
58 *858:462 *1658:DE 16.8658 
59 *858:441 *1388:DE 14.7076 
60 *858:431 *1381:DE 14.153 
61 *858:406 *1653:DE 14.153 
62 *858:402 *1383:DE 23.6517 
*END

*D_NET *859 0.0254182
*CONN
*I *1398:DE I *D sky130_fd_sc_hd__edfxtp_1
*I *1403:DE I *D sky130_fd_sc_hd__edfxtp_1
*I *1389:DE I *D sky130_fd_sc_hd__edfxtp_1
*I *1406:DE I *D sky130_fd_sc_hd__edfxtp_1
*I *1416:DE I *D sky130_fd_sc_hd__edfxtp_1
*I *1395:DE I *D sky130_fd_sc_hd__edfxtp_1
*I *1400:DE I *D sky130_fd_sc_hd__edfxtp_1
*I *2263:X O *D sky130_fd_sc_hd__buf_6
*CAP
1 *1398:DE 0.000361148
2 *1403:DE 0.000355388
3 *1389:DE 0.000310222
4 *1406:DE 0.000151052
5 *1416:DE 0
6 *1395:DE 0
7 *1400:DE 1.98566e-05
8 *2263:X 6.89186e-05
9 *859:98 0.0029416
10 *859:77 0.00381402
11 *859:67 0.00242174
12 *859:50 0.00150153
13 *859:39 0.00152047
14 *859:16 0.00174485
15 *859:12 0.00206647
16 *859:8 0.00110293
17 *1389:DE *1005:S0 6.56036e-05
18 *1389:DE *1005:S1 0.000185477
19 *1389:DE *880:221 7.35086e-06
20 *1389:DE *881:216 5.99922e-05
21 *1389:DE *882:306 0
22 *1398:DE *981:C 0.000167245
23 *1398:DE *1622:DE 0.000487292
24 *1398:DE *880:189 0.000109274
25 *1403:DE *881:216 4.4147e-05
26 *1403:DE *882:320 0
27 *1406:DE *880:207 7.62718e-06
28 *1406:DE *881:187 9.16209e-05
29 *859:12 *881:117 0.000276754
30 *859:12 *881:119 0.00020906
31 *859:12 *882:40 0.00103563
32 *859:12 *882:42 0.000256522
33 *859:39 *978:B 0
34 *859:39 *978:C 0.000106824
35 *859:39 *1035:S0 0
36 *859:39 *1352:C 0
37 *859:39 *1592:CLK 0
38 *859:39 *862:14 0.000113642
39 *859:39 *882:42 0
40 *859:39 *882:44 0
41 *859:50 *1416:CLK 0.000362218
42 *859:50 *875:189 0.000255298
43 *859:67 *862:60 0.000257186
44 *859:67 *867:141 1.94472e-05
45 *859:77 *1622:DE 0.000165158
46 *859:77 *880:189 4.47491e-05
47 *859:77 *881:187 5.77631e-05
48 *859:77 *881:259 3.70353e-05
49 *859:77 *882:196 0
50 *859:98 *881:187 1.85244e-05
51 *859:98 *891:39 7.78924e-05
52 *1006:A2 *1389:DE 8.07794e-05
53 *1006:A3 *1389:DE 9.96342e-05
54 *1060:A3 *859:12 4.27003e-05
55 *1061:A0 *859:50 7.32024e-06
56 *1079:A2 *859:67 0
57 *1091:A2 *1406:DE 6.64671e-06
58 *1091:A2 *859:77 6.63928e-05
59 *1091:A3 *859:77 0.000101998
60 *1116:A3 *859:12 3.70431e-05
61 *1395:D *859:39 9.4078e-05
62 *1398:D *1398:DE 0.000520483
63 *1416:D *859:50 3.33625e-05
64 *1581:D *859:98 2.41117e-05
65 *1581:DE *859:98 3.72315e-05
66 *1587:DE *859:39 0
67 *1595:DE *1403:DE 0.000373432
68 *1598:D *859:77 5.48187e-06
69 *1598:DE *859:77 3.34544e-06
70 *433:14 *859:39 0.000635589
71 *501:14 *859:39 0
72 *856:187 *859:98 0.000342202
73 *857:190 *859:67 6.85238e-06
*RES
1 *2263:X *859:8 15.0271 
2 *859:8 *859:12 40.3827 
3 *859:12 *859:16 4.62973 
4 *859:16 *1400:DE 9.65304 
5 *859:16 *859:39 44.9207 
6 *859:39 *1395:DE 9.24915 
7 *859:12 *859:50 20.5022 
8 *859:50 *1416:DE 9.24915 
9 *859:50 *859:67 14.8345 
10 *859:67 *859:77 34.1752 
11 *859:77 *1406:DE 18.2689 
12 *859:77 *859:98 43.5564 
13 *859:98 *1389:DE 25.6091 
14 *859:98 *1403:DE 24.1589 
15 *859:67 *1398:DE 29.896 
*END

*D_NET *860 0.0340354
*CONN
*I *1408:DE I *D sky130_fd_sc_hd__edfxtp_1
*I *1413:DE I *D sky130_fd_sc_hd__edfxtp_1
*I *1420:DE I *D sky130_fd_sc_hd__edfxtp_1
*I *1401:DE I *D sky130_fd_sc_hd__edfxtp_1
*I *2263:A I *D sky130_fd_sc_hd__buf_6
*I *1411:DE I *D sky130_fd_sc_hd__edfxtp_1
*I *1390:DE I *D sky130_fd_sc_hd__edfxtp_1
*I *1412:DE I *D sky130_fd_sc_hd__edfxtp_1
*I *1409:DE I *D sky130_fd_sc_hd__edfxtp_1
*I *1392:DE I *D sky130_fd_sc_hd__edfxtp_1
*I *2264:X O *D sky130_fd_sc_hd__probec_p_8
*CAP
1 *1408:DE 3.94652e-05
2 *1413:DE 0.000306163
3 *1420:DE 6.36159e-05
4 *1401:DE 0
5 *2263:A 0
6 *1411:DE 0.000171441
7 *1390:DE 5.42726e-05
8 *1412:DE 0
9 *1409:DE 0.000144074
10 *1392:DE 0.000102071
11 *2264:X 0.000361597
12 *860:103 0.000947287
13 *860:88 0.00182227
14 *860:82 0.00283068
15 *860:74 0.00251972
16 *860:70 0.00112499
17 *860:58 0.00180775
18 *860:48 0.00148045
19 *860:42 0.00210433
20 *860:34 0.00272965
21 *860:13 0.00178697
22 *1390:DE *863:100 0.000101553
23 *1390:DE *875:274 3.42041e-05
24 *1392:DE *887:132 3.69704e-05
25 *1408:DE *879:77 4.96564e-05
26 *1409:DE *893:70 0.000108835
27 *1411:DE *877:170 4.16614e-05
28 *1411:DE *896:16 0
29 *1411:DE *903:230 8.08397e-05
30 *1413:DE *996:C 9.2346e-06
31 *1413:DE *879:143 0.000136301
32 *1413:DE *889:87 8.56933e-05
33 *860:13 *887:132 2.33397e-05
34 *860:13 *887:143 1.23544e-05
35 *860:34 *1632:DE 2.01503e-05
36 *860:34 *2289:A 0.000867473
37 *860:34 *863:20 0
38 *860:34 *863:37 0
39 *860:34 *871:25 0
40 *860:34 *880:41 0.000296048
41 *860:42 *880:41 1.62625e-05
42 *860:48 *1161:S0 0
43 *860:48 *879:81 4.17264e-05
44 *860:48 *879:143 1.20726e-05
45 *860:58 *879:81 3.24928e-05
46 *860:58 *879:89 0
47 *860:70 *984:C 3.43719e-05
48 *860:70 *1241:C 0.000252598
49 *860:70 *1401:CLK 0.000634132
50 *860:70 *867:192 0.000372782
51 *860:70 *882:34 0.000176835
52 *860:70 *882:40 0.000405204
53 *860:74 *896:16 0.000270186
54 *860:82 *1603:CLK 1.03403e-05
55 *860:82 *875:274 0.000337134
56 *860:82 *877:170 0.000250947
57 *860:88 *863:100 0.00105904
58 *860:88 *893:70 2.99978e-05
59 *860:88 *893:109 0
60 *860:103 *1412:CLK 7.35086e-06
61 *860:103 *868:67 0
62 *1021:A1 *860:13 0
63 *1066:A1 *860:58 0
64 *1066:A2 *860:58 0.000168319
65 *1066:A3 *860:58 3.26247e-05
66 *1106:A0 *860:88 2.01098e-05
67 *1106:A1 *860:103 0.000140036
68 *1106:A2 *860:103 0
69 *1106:A3 *860:103 0
70 *1121:A2 *860:103 0.000598015
71 *1121:A3 *860:103 0.000308653
72 *1121:S0 *860:103 0.000741265
73 *1129:A2 *860:42 0
74 *1161:A1 *860:48 0
75 *1161:A2 *860:48 0.000411585
76 *1161:A2 *860:58 0.000144659
77 *1161:A3 *860:48 6.8691e-05
78 *1228:A *860:48 0
79 *1377:D *860:88 0.000272015
80 *1401:D *860:58 0.000108189
81 *1401:D *860:70 6.18435e-05
82 *1408:D *1408:DE 0.000138955
83 *1409:D *860:103 0
84 *1413:D *1413:DE 0.000135597
85 *1420:D *860:58 0.000167564
86 *1464:DE *860:82 0
87 *1520:D *860:13 3.93257e-06
88 *1520:DE *860:13 3.37073e-06
89 *1603:D *860:82 5.34249e-06
90 *1603:DE *860:82 1.45319e-05
91 *1625:D *860:58 0
92 *1632:D *860:34 3.31736e-05
93 *13:100 *860:103 0.000225201
94 *68:318 *860:103 1.8458e-05
95 *123:62 *1411:DE 0
96 *123:62 *860:70 0.000160808
97 *128:32 *860:13 4.51176e-05
98 *334:14 *1390:DE 4.15551e-05
99 *334:14 *860:88 0.000142221
100 *418:142 *860:103 0.000130649
101 *423:71 *860:88 5.25502e-05
102 *423:79 *860:88 2.0995e-05
103 *509:18 *860:42 0.00131065
104 *557:18 *860:34 0
105 *557:18 *860:42 9.71889e-05
106 *856:10 *860:13 0.00035359
107 *856:14 *1392:DE 3.10484e-05
108 *856:14 *860:13 1.51735e-05
109 *856:294 *860:34 0.000933196
110 *856:333 *860:58 0.000144546
111 *857:319 *1413:DE 0.000387523
112 *857:319 *860:48 0.000101823
113 *858:12 *860:34 0
114 *858:324 *860:34 0
*RES
1 *2264:X *860:13 18.7712 
2 *860:13 *1392:DE 16.332 
3 *860:13 *860:34 19.646 
4 *860:34 *860:42 11.0234 
5 *860:42 *860:48 14.3018 
6 *860:48 *860:58 32.1818 
7 *860:58 *860:70 39.0478 
8 *860:70 *860:74 11.8786 
9 *860:74 *860:82 41.2225 
10 *860:82 *860:88 30.1814 
11 *860:88 *1409:DE 13.6799 
12 *860:88 *860:103 42.3798 
13 *860:103 *1412:DE 9.24915 
14 *860:82 *1390:DE 15.985 
15 *860:74 *1411:DE 18.4766 
16 *860:70 *2263:A 9.24915 
17 *860:58 *1401:DE 9.24915 
18 *860:48 *1420:DE 14.8523 
19 *860:42 *1413:DE 25.5481 
20 *860:34 *1408:DE 15.7566 
*END

*D_NET *861 0.0336105
*CONN
*I *1391:DE I *D sky130_fd_sc_hd__edfxtp_1
*I *1397:DE I *D sky130_fd_sc_hd__edfxtp_1
*I *1410:DE I *D sky130_fd_sc_hd__edfxtp_1
*I *1402:DE I *D sky130_fd_sc_hd__edfxtp_1
*I *1405:DE I *D sky130_fd_sc_hd__edfxtp_1
*I *1415:DE I *D sky130_fd_sc_hd__edfxtp_1
*I *1393:DE I *D sky130_fd_sc_hd__edfxtp_1
*I *1414:DE I *D sky130_fd_sc_hd__edfxtp_1
*I *1417:DE I *D sky130_fd_sc_hd__edfxtp_1
*I *2265:X O *D sky130_fd_sc_hd__probec_p_8
*CAP
1 *1391:DE 0.00029072
2 *1397:DE 5.74743e-05
3 *1410:DE 5.78943e-05
4 *1402:DE 4.8527e-05
5 *1405:DE 0.000455957
6 *1415:DE 5.63545e-05
7 *1393:DE 1.96964e-05
8 *1414:DE 2.21609e-05
9 *1417:DE 0.000203879
10 *2265:X 0.000491095
11 *861:103 0.001265
12 *861:101 0.00139816
13 *861:99 0.00184201
14 *861:86 0.00214016
15 *861:65 0.00240442
16 *861:44 0.00309243
17 *861:23 0.00342985
18 *861:13 0.00244321
19 *1391:DE *1391:CLK 5.04829e-06
20 *1393:DE *976:B 1.69178e-06
21 *1405:DE *864:79 0
22 *1405:DE *864:92 0.000543924
23 *1417:DE *1000:B 1.5714e-05
24 *861:13 *872:16 0.000142613
25 *861:13 *872:23 0.000201265
26 *861:13 *872:67 0.00020468
27 *861:13 *878:30 0.00075791
28 *861:13 *878:45 0.000531876
29 *861:23 *2290:A 0.000479233
30 *861:44 *1000:B 0.000229456
31 *861:44 *1350:C 0
32 *861:65 *976:B 0.000118421
33 *861:65 *1393:CLK 0.000125309
34 *861:65 *878:267 1.5714e-05
35 *861:86 *976:B 1.03403e-05
36 *861:86 *1026:S0 7.51256e-05
37 *861:86 *1639:CLK 0.000277502
38 *861:86 *1639:DE 0
39 *861:99 *864:67 0.000756896
40 *861:101 *1071:S1 0.000171864
41 *861:101 *864:67 0.000383475
42 *861:101 *864:75 0.00153817
43 *861:101 *881:486 0.000367942
44 *861:103 *1071:S1 0.000519534
45 *861:103 *864:75 0.000365038
46 *861:103 *864:79 0
47 *1016:A3 *1391:DE 8.00909e-05
48 *1016:A3 *861:13 0.000133063
49 *1026:A0 *861:86 0.000258388
50 *1046:A3 *861:99 0.000101148
51 *1046:A3 *861:101 0.000630467
52 *1071:A1 *1405:DE 0
53 *1071:A1 *861:103 0
54 *1071:A2 *861:103 2.99929e-05
55 *1111:A3 *861:101 9.96342e-05
56 *1131:A2 *861:44 0.000108474
57 *1131:A2 *861:65 1.66771e-05
58 *1131:A3 *861:44 3.77799e-05
59 *1135:A2 *861:99 0.000248753
60 *1135:S1 *861:99 0
61 *1391:D *1391:DE 3.15447e-05
62 *1391:D *861:13 1.29211e-05
63 *1393:D *861:65 0.000100856
64 *1402:D *1405:DE 5.91107e-05
65 *1414:D *861:44 0.000192071
66 *1414:D *861:65 5.33358e-06
67 *1417:D *1417:DE 8.50354e-05
68 *1583:D *1391:DE 0.000113927
69 *1607:D *861:86 0
70 *1607:DE *861:86 6.24695e-05
71 *1641:D *1417:DE 0
72 *1641:D *861:44 0
73 *18:13 *861:44 0
74 *19:83 *861:65 2.02035e-05
75 *23:21 *1391:DE 0.00014638
76 *23:21 *861:13 9.46476e-05
77 *69:461 *861:23 0
78 *69:461 *861:44 0.000247037
79 *69:489 *861:65 0.000340143
80 *124:242 *861:99 0.000393288
81 *125:71 *861:44 5.91176e-05
82 *125:71 *861:65 0.000651825
83 *125:79 *861:65 6.25468e-06
84 *125:93 *861:86 0.000555974
85 *126:54 *861:44 0.000470592
86 *126:89 *861:86 0.000262038
87 *126:118 *861:103 0.000193114
88 *417:489 *1414:DE 3.37073e-06
89 *427:366 *861:44 2.63051e-05
90 *537:16 *861:99 9.51287e-05
91 *823:12 *861:13 5.2449e-05
92 *856:8 *861:13 2.72077e-05
*RES
1 *2265:X *861:13 30.8388 
2 *861:13 *861:23 10.6718 
3 *861:23 *1417:DE 18.6842 
4 *861:23 *861:44 19.117 
5 *861:44 *1414:DE 14.153 
6 *861:44 *861:65 16.6341 
7 *861:65 *1393:DE 9.65304 
8 *861:65 *861:86 36.8493 
9 *861:86 *1415:DE 10.3523 
10 *861:86 *861:99 44.4337 
11 *861:99 *861:101 33.3912 
12 *861:101 *861:103 26.7471 
13 *861:103 *1405:DE 28.1667 
14 *861:103 *1402:DE 14.7076 
15 *861:101 *1410:DE 14.7076 
16 *861:99 *1397:DE 14.7076 
17 *861:13 *1391:DE 22.5033 
*END

*D_NET *862 0.0252632
*CONN
*I *1625:DE I *D sky130_fd_sc_hd__edfxtp_1
*I *1624:DE I *D sky130_fd_sc_hd__edfxtp_1
*I *1622:DE I *D sky130_fd_sc_hd__edfxtp_1
*I *1630:DE I *D sky130_fd_sc_hd__edfxtp_1
*I *1613:DE I *D sky130_fd_sc_hd__edfxtp_1
*I *1640:DE I *D sky130_fd_sc_hd__edfxtp_1
*I *1619:DE I *D sky130_fd_sc_hd__edfxtp_1
*I *2266:X O *D sky130_fd_sc_hd__buf_6
*CAP
1 *1625:DE 0
2 *1624:DE 4.23751e-05
3 *1622:DE 0.000421972
4 *1630:DE 2.37334e-05
5 *1613:DE 0
6 *1640:DE 0
7 *1619:DE 0.000934471
8 *2266:X 7.88848e-05
9 *862:124 0.00108951
10 *862:80 0.00135232
11 *862:70 0.00239982
12 *862:60 0.00193577
13 *862:43 0.00162849
14 *862:14 0.00254843
15 *862:10 0.00153376
16 *862:6 0.00218429
17 *1619:DE *867:67 0
18 *1619:DE *874:362 0.000606442
19 *1622:DE *981:C 9.64737e-05
20 *1622:DE *1334:C 0
21 *1622:DE *1622:CLK 8.11133e-05
22 *1622:DE *880:189 0
23 *1624:DE *874:414 2.35126e-05
24 *862:6 *865:350 0.000261946
25 *862:10 *1560:DE 1.91651e-05
26 *862:10 *877:170 0
27 *862:10 *882:40 0
28 *862:10 *882:42 0
29 *862:10 *892:45 0
30 *862:10 *892:58 0
31 *862:10 *892:71 0
32 *862:14 *1592:CLK 0
33 *862:14 *882:42 0
34 *862:14 *892:12 3.09374e-06
35 *862:14 *892:14 0
36 *862:60 *2295:A 6.25468e-06
37 *862:70 *1090:S0 0
38 *862:70 *1310:B 2.65667e-05
39 *862:70 *1310:C 3.07828e-05
40 *862:70 *880:189 0
41 *862:70 *903:268 0.000258471
42 *862:80 *972:B 6.36343e-06
43 *862:80 *972:C 9.02691e-05
44 *862:80 *1090:S0 0
45 *862:80 *1261:B 9.82896e-06
46 *862:80 *881:174 0.000159586
47 *862:80 *903:268 0.000146767
48 *862:124 *1625:CLK 0.000118367
49 *862:124 *865:350 0.00124222
50 *972:A *862:80 0.000164843
51 *999:A *862:60 2.1558e-06
52 *1061:A2 *1619:DE 0.00019781
53 *1061:A2 *862:43 0.000411221
54 *1090:A0 *862:80 8.69374e-05
55 *1116:A0 *862:124 0
56 *1141:A0 *1622:DE 0
57 *1141:A0 *862:70 0
58 *1310:A *862:70 3.82228e-05
59 *1366:A *862:124 0
60 *1398:DE *1622:DE 0.000487292
61 *1464:DE *862:10 1.90128e-05
62 *1549:D *862:80 0.000132235
63 *1592:D *1619:DE 0.000153225
64 *1613:D *862:80 0.000715884
65 *1624:D *862:14 0
66 *1625:D *862:124 3.57898e-05
67 *1640:D *862:43 3.14375e-05
68 *1:48 *862:80 0.000266846
69 *1:55 *862:80 0.000319954
70 *4:27 *862:124 3.67543e-05
71 *418:215 *862:60 7.22572e-05
72 *857:108 *1619:DE 0.000138422
73 *857:175 *862:60 0.000261183
74 *857:190 *862:60 0.00179471
75 *858:47 *1619:DE 0
76 *859:39 *862:14 0.000113642
77 *859:67 *862:60 0.000257186
78 *859:77 *1622:DE 0.000165158
*RES
1 *2266:X *862:6 12.191 
2 *862:6 *862:10 27.0946 
3 *862:10 *862:14 15.4675 
4 *862:14 *1619:DE 46.0574 
5 *862:14 *862:43 22.5036 
6 *862:43 *1640:DE 9.24915 
7 *862:43 *862:60 15.5011 
8 *862:60 *862:70 34.3744 
9 *862:70 *862:80 45.2671 
10 *862:80 *1613:DE 9.24915 
11 *862:70 *1630:DE 14.153 
12 *862:60 *1622:DE 27.1286 
13 *862:10 *1624:DE 14.8523 
14 *862:6 *862:124 41.2734 
15 *862:124 *1625:DE 9.24915 
*END

*D_NET *863 0.0304254
*CONN
*I *1637:DE I *D sky130_fd_sc_hd__edfxtp_1
*I *1644:DE I *D sky130_fd_sc_hd__edfxtp_1
*I *1633:DE I *D sky130_fd_sc_hd__edfxtp_1
*I *1636:DE I *D sky130_fd_sc_hd__edfxtp_1
*I *1614:DE I *D sky130_fd_sc_hd__edfxtp_1
*I *2266:A I *D sky130_fd_sc_hd__buf_6
*I *1635:DE I *D sky130_fd_sc_hd__edfxtp_1
*I *1632:DE I *D sky130_fd_sc_hd__edfxtp_1
*I *2267:X O *D sky130_fd_sc_hd__buf_6
*CAP
1 *1637:DE 0.000859474
2 *1644:DE 0.000490614
3 *1633:DE 5.18521e-05
4 *1636:DE 0.000648591
5 *1614:DE 0.000192565
6 *2266:A 0.000330619
7 *1635:DE 4.15096e-05
8 *1632:DE 0.000204703
9 *2267:X 0.000875006
10 *863:100 0.00200469
11 *863:73 0.00284287
12 *863:58 0.00184998
13 *863:47 0.000290216
14 *863:45 0.0013443
15 *863:37 0.00226248
16 *863:20 0.00127153
17 *863:16 0.00229834
18 *1614:DE *865:199 4.38072e-06
19 *1614:DE *877:29 3.70952e-05
20 *1632:DE *880:141 1.06674e-05
21 *1635:DE *867:192 2.40602e-05
22 *1636:DE *1636:CLK 0.000114271
23 *1636:DE *877:71 3.64899e-05
24 *1636:DE *877:82 0
25 *1637:DE *1637:CLK 0.000138943
26 *1637:DE *887:20 0.000341586
27 *1644:DE *1644:CLK 0.00016553
28 *1644:DE *871:65 0.000786656
29 *1644:DE *875:330 0.000491352
30 *2266:A *865:350 5.56461e-05
31 *2266:A *867:46 0
32 *2266:A *895:27 0
33 *2266:A *903:230 0.000601588
34 *863:16 *1280:B 0.000112361
35 *863:16 *1280:C 2.27677e-05
36 *863:16 *887:20 9.39749e-05
37 *863:20 *882:20 0
38 *863:37 *880:41 0
39 *863:37 *882:20 0
40 *863:37 *882:26 0
41 *863:45 *871:65 7.89491e-05
42 *863:45 *875:330 0.000312844
43 *863:45 *880:41 0.000746119
44 *863:45 *880:51 0.000244966
45 *863:45 *895:17 7.86825e-06
46 *863:45 *903:230 8.22873e-05
47 *863:47 *867:192 3.33645e-05
48 *863:58 *895:27 0
49 *863:58 *903:230 0.000362543
50 *863:73 *895:27 5.45822e-05
51 *863:100 *1569:DE 0.00145157
52 *863:100 *865:199 0.000138579
53 *863:100 *877:21 1.06344e-05
54 *863:100 *893:34 2.51147e-05
55 *863:100 *893:47 4.31326e-05
56 *995:A *1636:DE 0.000122844
57 *1100:A0 *1637:DE 8.12843e-05
58 *1106:A2 *1636:DE 0
59 *1376:A *863:16 9.70689e-05
60 *1376:B *863:16 0.00023748
61 *1377:D *863:100 0.000192935
62 *1390:DE *863:100 0.000101553
63 *1411:D *2266:A 0.00014256
64 *1539:DE *863:73 6.62062e-06
65 *1568:D *863:16 0.000224145
66 *1568:DE *863:16 3.43037e-05
67 *1568:DE *863:20 0.000166476
68 *1604:DE *1636:DE 0.000306865
69 *1604:DE *863:100 0
70 *1635:D *863:58 8.35289e-05
71 *1636:D *1636:DE 0.000130694
72 *1637:D *1637:DE 6.42482e-05
73 *11:38 *863:16 4.01825e-05
74 *13:49 *1636:DE 0.000159678
75 *13:49 *863:100 3.88358e-05
76 *68:306 *863:100 0.000186729
77 *68:308 *863:100 0.00132644
78 *68:318 *863:100 0.000205332
79 *123:62 *863:45 0
80 *334:14 *1614:DE 1.5714e-05
81 *334:14 *863:100 7.93945e-05
82 *396:22 *1644:DE 0.000137121
83 *477:18 *863:100 0.000263596
84 *481:14 *863:73 0
85 *497:18 *1614:DE 2.8813e-05
86 *497:18 *863:73 0.000290904
87 *856:128 *863:73 5.85953e-05
88 *857:319 *1644:DE 3.29812e-05
89 *860:34 *1632:DE 2.01503e-05
90 *860:34 *863:20 0
91 *860:34 *863:37 0
92 *860:88 *863:100 0.00105904
*RES
1 *2267:X *863:16 33.6758 
2 *863:16 *863:20 17.7514 
3 *863:20 *1632:DE 18.0663 
4 *863:20 *863:37 15.6752 
5 *863:37 *863:45 48.3791 
6 *863:45 *863:47 1.8326 
7 *863:47 *1635:DE 10.3523 
8 *863:47 *863:58 11.1074 
9 *863:58 *2266:A 25.7871 
10 *863:58 *863:73 6.93722 
11 *863:73 *1614:DE 18.2563 
12 *863:73 *863:100 49.652 
13 *863:100 *1636:DE 33.3709 
14 *863:100 *1633:DE 14.8523 
15 *863:37 *1644:DE 28.6904 
16 *863:16 *1637:DE 32.6269 
*END

*D_NET *864 0.0368285
*CONN
*I *1615:DE I *D sky130_fd_sc_hd__edfxtp_1
*I *1641:DE I *D sky130_fd_sc_hd__edfxtp_1
*I *1617:DE I *D sky130_fd_sc_hd__edfxtp_1
*I *1639:DE I *D sky130_fd_sc_hd__edfxtp_1
*I *1621:DE I *D sky130_fd_sc_hd__edfxtp_1
*I *1634:DE I *D sky130_fd_sc_hd__edfxtp_1
*I *1629:DE I *D sky130_fd_sc_hd__edfxtp_1
*I *1627:DE I *D sky130_fd_sc_hd__edfxtp_1
*I *1626:DE I *D sky130_fd_sc_hd__edfxtp_1
*I *1638:DE I *D sky130_fd_sc_hd__edfxtp_1
*I *2268:X O *D sky130_fd_sc_hd__buf_6
*CAP
1 *1615:DE 6.7177e-05
2 *1641:DE 2.37535e-05
3 *1617:DE 9.68546e-05
4 *1639:DE 0.000294651
5 *1621:DE 2.30055e-05
6 *1634:DE 0.000131022
7 *1629:DE 2.37466e-05
8 *1627:DE 0.000719402
9 *1626:DE 4.87477e-05
10 *1638:DE 0
11 *2268:X 0.000731548
12 *864:92 0.00140749
13 *864:79 0.00174343
14 *864:75 0.00186839
15 *864:67 0.00178269
16 *864:61 0.00326519
17 *864:53 0.00293811
18 *864:34 0.00164252
19 *864:20 0.00261741
20 *864:10 0.00267322
21 *1627:DE *1076:S1 0.000235655
22 *1627:DE *1086:S0 0.000185865
23 *1634:DE *1634:CLK 8.11886e-06
24 *864:34 *1254:B 6.64392e-05
25 *864:34 *1606:CLK 0.000314894
26 *864:34 *1638:CLK 1.8254e-05
27 *864:53 *1131:S0 1.66626e-05
28 *864:53 *870:14 2.60486e-05
29 *864:61 *870:14 6.68963e-06
30 *864:67 *883:131 0.000412293
31 *864:67 *883:180 0.000345908
32 *864:79 *1402:CLK 0.000170592
33 *864:92 *1341:C 0
34 *908:B *864:10 0.000362216
35 *1016:A1 *864:20 0.000109724
36 *1071:A2 *864:79 0
37 *1076:A0 *1627:DE 0
38 *1076:A2 *1627:DE 0.000261007
39 *1086:A2 *1627:DE 7.50722e-05
40 *1086:A3 *1627:DE 0.000171315
41 *1086:A3 *864:92 4.0508e-05
42 *1131:A1 *864:53 2.84758e-05
43 *1135:S1 *864:67 0
44 *1136:A2 *1639:DE 7.50872e-05
45 *1136:A3 *1639:DE 0.000100108
46 *1146:A2 *864:20 0
47 *1146:A2 *864:34 0
48 *1146:A3 *864:20 4.4147e-05
49 *1146:S1 *864:20 0.000323526
50 *1146:S1 *864:34 2.24484e-05
51 *1402:D *864:79 0
52 *1402:D *864:92 5.19205e-05
53 *1405:DE *864:79 0
54 *1405:DE *864:92 0.000543924
55 *1542:D *864:34 0.000217028
56 *1575:D *864:67 0.000289788
57 *1583:D *864:10 4.7798e-05
58 *1583:D *864:20 1.55642e-05
59 *1594:D *864:79 0
60 *1597:DE *864:79 0
61 *1607:D *1639:DE 0.000371587
62 *1607:D *864:67 8.86409e-05
63 *1615:D *1615:DE 0.000133166
64 *1617:D *1617:DE 6.46815e-05
65 *1621:D *864:67 0.000347982
66 *1629:D *1627:DE 0.00019629
67 *1638:D *864:34 0.000147059
68 *1641:D *864:34 6.56482e-05
69 *1672:A *864:10 0.000312627
70 *23:13 *864:10 5.43299e-05
71 *23:15 *864:10 2.15326e-05
72 *23:21 *864:10 1.0867e-05
73 *23:21 *864:20 1.9033e-05
74 *27:32 *864:53 9.58043e-06
75 *27:36 *864:53 0.00011041
76 *27:36 *864:61 1.66626e-05
77 *69:461 *864:20 0
78 *69:461 *864:34 4.51176e-05
79 *82:22 *864:20 7.34131e-05
80 *124:242 *864:67 0.000396814
81 *125:44 *864:20 0
82 *125:79 *864:61 0
83 *125:99 *1634:DE 0
84 *125:99 *864:79 0
85 *126:50 *864:34 0.000379978
86 *126:54 *864:53 0.00124745
87 *126:75 *864:53 5.28209e-05
88 *126:75 *864:61 0.000257318
89 *126:104 *864:67 0.000114616
90 *126:104 *864:75 0.00143023
91 *126:118 *1634:DE 0
92 *126:118 *864:75 0.000397521
93 *126:118 *864:79 0
94 *417:495 *864:34 0
95 *417:497 *864:34 0
96 *427:312 *864:20 0.000105987
97 *427:366 *864:53 0.000191395
98 *427:404 *864:61 0.00012601
99 *464:26 *1621:DE 2.90638e-06
100 *516:14 *864:75 0.000307806
101 *861:86 *1639:DE 0
102 *861:99 *864:67 0.000756896
103 *861:101 *864:67 0.000383475
104 *861:101 *864:75 0.00153817
105 *861:103 *864:75 0.000365038
106 *861:103 *864:79 0
*RES
1 *2268:X *864:10 34.1828 
2 *864:10 *864:20 17.7946 
3 *864:20 *864:34 25.9151 
4 *864:34 *1638:DE 9.24915 
5 *864:34 *864:53 21.9748 
6 *864:53 *864:61 11.4495 
7 *864:61 *864:67 47.3754 
8 *864:67 *864:75 45.4723 
9 *864:75 *864:79 29.1709 
10 *864:79 *1626:DE 10.3523 
11 *864:79 *864:92 23.947 
12 *864:92 *1627:DE 40.0966 
13 *864:92 *1629:DE 14.153 
14 *864:75 *1634:DE 16.5818 
15 *864:67 *1621:DE 14.153 
16 *864:61 *1639:DE 23.8066 
17 *864:53 *1617:DE 15.8591 
18 *864:20 *1641:DE 14.153 
19 *864:10 *1615:DE 15.7566 
*END

*D_NET *865 0.090197
*CONN
*I *1495:DE I *D sky130_fd_sc_hd__edfxtp_1
*I *1507:DE I *D sky130_fd_sc_hd__edfxtp_1
*I *1499:DE I *D sky130_fd_sc_hd__edfxtp_1
*I *1501:DE I *D sky130_fd_sc_hd__edfxtp_1
*I *1494:DE I *D sky130_fd_sc_hd__edfxtp_1
*I *1488:DE I *D sky130_fd_sc_hd__edfxtp_1
*I *1496:DE I *D sky130_fd_sc_hd__edfxtp_1
*I *1485:DE I *D sky130_fd_sc_hd__edfxtp_1
*I *1502:DE I *D sky130_fd_sc_hd__edfxtp_1
*I *1512:DE I *D sky130_fd_sc_hd__edfxtp_1
*I *1491:DE I *D sky130_fd_sc_hd__edfxtp_1
*I *1505:DE I *D sky130_fd_sc_hd__edfxtp_1
*I *1486:DE I *D sky130_fd_sc_hd__edfxtp_1
*I *1503:DE I *D sky130_fd_sc_hd__edfxtp_1
*I *1515:DE I *D sky130_fd_sc_hd__edfxtp_1
*I *1508:DE I *D sky130_fd_sc_hd__edfxtp_1
*I *1500:DE I *D sky130_fd_sc_hd__edfxtp_1
*I *1490:DE I *D sky130_fd_sc_hd__edfxtp_1
*I *1492:DE I *D sky130_fd_sc_hd__edfxtp_1
*I *2269:X O *D sky130_fd_sc_hd__buf_12
*CAP
1 *1495:DE 2.37334e-05
2 *1507:DE 8.39426e-05
3 *1499:DE 0.000820093
4 *1501:DE 0
5 *1494:DE 0.000193228
6 *1488:DE 0.000263136
7 *1496:DE 0.00089996
8 *1485:DE 0
9 *1502:DE 0
10 *1512:DE 0.000116946
11 *1491:DE 0.000143603
12 *1505:DE 0
13 *1486:DE 0
14 *1503:DE 8.08031e-05
15 *1515:DE 0.000419894
16 *1508:DE 0.000862386
17 *1500:DE 0.000237902
18 *1490:DE 7.708e-05
19 *1492:DE 1.67259e-05
20 *2269:X 0.00105733
21 *865:371 0.00227268
22 *865:350 0.00368472
23 *865:346 0.0031297
24 *865:336 0.00179843
25 *865:315 0.00131679
26 *865:289 0.00160523
27 *865:262 0.0024583
28 *865:239 0.00223687
29 *865:220 0.00207269
30 *865:218 0.00242348
31 *865:199 0.00409594
32 *865:177 0.00403243
33 *865:168 0.00177894
34 *865:143 0.00149193
35 *865:102 0.0020672
36 *865:79 0.00369234
37 *865:67 0.00499289
38 *865:57 0.00307959
39 *865:30 0.00229542
40 *865:16 0.00220481
41 *1488:DE *1507:CLK 0.000123665
42 *1490:DE *1170:B 3.38494e-05
43 *1491:DE *1651:CLK 3.12828e-05
44 *1491:DE *893:255 8.44702e-05
45 *1494:DE *1494:CLK 7.34948e-06
46 *1496:DE *1304:C 6.89596e-05
47 *1496:DE *1496:CLK 4.09222e-05
48 *1496:DE *867:61 3.21375e-05
49 *1496:DE *874:344 0.000190875
50 *1496:DE *874:348 4.7798e-05
51 *1499:DE *1181:C 0.000292801
52 *1499:DE *1565:CLK 3.14978e-05
53 *1499:DE *891:324 7.48797e-05
54 *1499:DE *903:268 0
55 *1500:DE *1500:CLK 9.93106e-06
56 *1508:DE *1508:CLK 0.000381471
57 *1512:DE *892:159 4.23622e-05
58 *1512:DE *892:161 3.12828e-05
59 *1515:DE *1515:CLK 6.08467e-05
60 *865:57 *884:27 0.000110689
61 *865:57 *904:26 0.000332326
62 *865:79 *904:62 5.39635e-06
63 *865:102 *1170:B 5.5372e-05
64 *865:102 *1500:CLK 0
65 *865:102 *894:18 0
66 *865:102 *903:85 0.000962304
67 *865:102 *903:91 5.38612e-06
68 *865:168 *884:202 0.000167553
69 *865:199 *1505:CLK 1.11556e-05
70 *865:199 *877:21 0.000127885
71 *865:218 *1505:CLK 1.69178e-06
72 *865:220 *1235:C 4.52039e-05
73 *865:220 *893:255 0.000466326
74 *865:239 *1037:S 0.000803676
75 *865:239 *1459:DE 0.000301487
76 *865:239 *1576:DE 6.54319e-05
77 *865:239 *904:74 0.00130319
78 *865:262 *1502:CLK 1.56911e-05
79 *865:262 *891:120 2.26557e-05
80 *865:289 *1165:C 2.70766e-05
81 *865:289 *1453:DE 2.99797e-05
82 *865:289 *874:488 3.37073e-06
83 *865:289 *891:66 2.24632e-05
84 *865:289 *891:74 6.13051e-05
85 *865:315 *1550:DE 4.07176e-05
86 *865:315 *877:21 0.000889582
87 *865:336 *1507:CLK 0.00032277
88 *865:346 *875:91 0.000254854
89 *865:346 *875:95 0.000100314
90 *865:350 *875:112 0.000559672
91 *865:371 *1174:B 0.00011818
92 *865:371 *1174:C 0.000387133
93 *1041:S0 *865:30 6.52296e-05
94 *1079:A2 *865:199 0.000168163
95 *1080:A2 *865:102 1.29348e-05
96 *1080:A3 *1508:DE 0.000144734
97 *1080:A3 *865:102 0
98 *1080:S0 *865:102 0.000537059
99 *1090:A3 *865:289 0.000137156
100 *1095:A0 *865:168 1.47085e-06
101 *1095:A3 *865:168 0.000137162
102 *1105:A0 *865:218 0.000139838
103 *1105:A3 *865:218 1.8456e-05
104 *1109:A2 *865:199 0
105 *1155:S1 *865:168 0.000318786
106 *1170:C *1490:DE 3.64999e-06
107 *1181:A *1499:DE 0
108 *1183:A *865:57 0.000280619
109 *1206:B *1494:DE 9.75356e-05
110 *1206:B *865:350 5.04829e-06
111 *1206:B *865:371 5.56367e-05
112 *1219:B *865:336 4.58907e-05
113 *1264:A *1488:DE 0.000309756
114 *1264:A *865:336 0.00014642
115 *1264:C *865:336 8.73569e-05
116 *1283:C *865:346 0.000305432
117 *1304:A *1496:DE 5.33721e-05
118 *1357:A *865:289 0.000405176
119 *1357:B *865:262 0.000142867
120 *1357:B *865:289 0.000479991
121 *1366:A *1494:DE 0
122 *1366:A *865:350 7.09148e-05
123 *1366:A *865:371 0
124 *1374:B *865:262 7.86825e-06
125 *1377:D *865:199 4.12833e-05
126 *1377:DE *1496:DE 2.16355e-05
127 *1379:D *865:346 0.000267909
128 *1384:D *1512:DE 2.66359e-05
129 *1453:D *865:289 0.00012136
130 *1485:D *865:289 5.96936e-05
131 *1486:D *865:168 0.000158132
132 *1488:D *1488:DE 9.7112e-06
133 *1491:D *1491:DE 6.5594e-05
134 *1492:D *1492:DE 3.42041e-05
135 *1492:D *865:30 4.66492e-05
136 *1492:D *865:57 2.86829e-05
137 *1494:D *1494:DE 3.14375e-05
138 *1495:D *865:16 9.22013e-06
139 *1495:D *865:30 4.27003e-05
140 *1496:D *1496:DE 0.000137135
141 *1499:D *1499:DE 3.14375e-05
142 *1501:D *865:371 3.57898e-05
143 *1502:D *865:262 6.13082e-05
144 *1502:D *865:289 8.90427e-05
145 *1505:D *865:199 0.000129679
146 *1507:D *1507:DE 0.000131208
147 *1507:D *865:336 0.000314112
148 *1508:D *1508:DE 0.000147777
149 *1512:D *1512:DE 4.99167e-05
150 *1515:D *1515:DE 6.42482e-05
151 *1523:DE *865:220 0.000147014
152 *1528:D *865:218 7.53199e-05
153 *1528:D *865:220 1.52868e-05
154 *1539:D *865:346 0.00018769
155 *1549:D *865:289 0
156 *1556:D *865:30 6.28196e-05
157 *1603:DE *865:346 0
158 *1614:DE *865:199 4.38072e-06
159 *2266:A *865:350 5.56461e-05
160 *3:19 *1496:DE 0.000113909
161 *3:55 *1496:DE 0.000696301
162 *15:17 *865:220 0.000129632
163 *15:34 *865:346 0.000109291
164 *15:45 *865:346 0.000154612
165 *15:56 *865:346 0.000201992
166 *15:67 *865:346 1.28301e-05
167 *15:82 *865:346 1.79484e-05
168 *32:73 *865:371 5.03285e-05
169 *32:82 *865:350 2.1801e-05
170 *32:82 *865:371 0.000691706
171 *68:264 *865:102 0.000196761
172 *69:138 *865:168 0.000101148
173 *69:183 *865:16 0.000644556
174 *70:44 *865:57 1.06064e-05
175 *70:57 *865:57 0.000565993
176 *83:65 *865:16 0.000172722
177 *121:12 *865:16 3.46533e-05
178 *123:16 *865:16 0
179 *123:16 *865:30 0
180 *123:20 *865:30 0.000324751
181 *123:28 *865:30 0.000292445
182 *128:32 *865:16 0.000130865
183 *418:34 *865:16 8.37016e-05
184 *418:72 *865:57 8.40003e-05
185 *418:87 *865:57 9.8239e-05
186 *418:87 *865:67 4.10737e-05
187 *418:97 *865:102 0.00010914
188 *423:175 *865:239 0.000193089
189 *423:175 *865:262 0.00227337
190 *423:395 *1499:DE 0.000492485
191 *424:53 *865:16 0
192 *424:53 *865:30 6.97465e-06
193 *424:55 *865:30 5.66868e-06
194 *424:83 *865:57 0.000106605
195 *424:83 *865:67 4.10737e-05
196 *424:107 *865:79 0.000280311
197 *424:107 *865:102 4.10737e-05
198 *424:234 *1488:DE 0
199 *424:234 *865:315 5.05252e-05
200 *424:236 *865:315 7.14746e-05
201 *424:240 *865:315 0.00028602
202 *424:325 *1491:DE 1.54863e-05
203 *433:14 *865:239 0.000936829
204 *433:14 *865:262 0.00047722
205 *437:24 *1503:DE 2.77394e-05
206 *437:24 *865:168 0.000169392
207 *457:16 *1508:DE 0.000128143
208 *469:18 *1515:DE 0.000320284
209 *481:14 *865:57 1.76021e-05
210 *481:14 *865:67 0
211 *481:14 *865:199 4.35506e-05
212 *497:18 *865:67 8.5564e-05
213 *856:130 *865:218 0.000242093
214 *856:130 *865:220 0.000122933
215 *856:130 *865:346 8.92568e-06
216 *856:132 *865:220 3.73754e-05
217 *856:134 *865:220 0.00013805
218 *857:45 *1488:DE 5.80092e-05
219 *857:45 *865:199 0
220 *857:45 *865:315 0
221 *857:339 *865:16 0.000482754
222 *858:18 *865:346 1.28704e-05
223 *858:24 *865:346 0
224 *858:34 *1496:DE 6.13051e-05
225 *858:47 *1491:DE 9.93089e-05
226 *858:47 *865:220 0.00161525
227 *858:183 *865:57 0.000222894
228 *858:213 *1515:DE 6.49708e-05
229 *858:263 *865:57 0.000108509
230 *862:6 *865:350 0.000261946
231 *862:124 *865:350 0.00124222
232 *863:100 *865:199 0.000138579
*RES
1 *2269:X *865:16 39.6632 
2 *865:16 *865:30 33.9133 
3 *865:30 *1492:DE 9.65304 
4 *865:30 *865:57 46.0337 
5 *865:57 *865:67 8.18604 
6 *865:67 *865:79 13.5264 
7 *865:79 *1490:DE 11.5098 
8 *865:79 *865:102 40.1473 
9 *865:102 *1500:DE 14.7892 
10 *865:102 *1508:DE 32.7173 
11 *865:67 *1515:DE 22.3934 
12 *865:57 *865:143 4.5 
13 *865:143 *1503:DE 10.9069 
14 *865:143 *865:168 40.28 
15 *865:168 *1486:DE 9.24915 
16 *865:168 *865:177 12.813 
17 *865:177 *865:199 22.8772 
18 *865:199 *1505:DE 9.24915 
19 *865:199 *865:218 26.4048 
20 *865:218 *865:220 29.8615 
21 *865:220 *1491:DE 17.8987 
22 *865:220 *865:239 8.22092 
23 *865:239 *1512:DE 20.3345 
24 *865:239 *865:262 14.5268 
25 *865:262 *1502:DE 9.24915 
26 *865:262 *865:289 48.7087 
27 *865:289 *1485:DE 9.24915 
28 *865:218 *1496:DE 45.873 
29 *865:177 *865:315 20.8658 
30 *865:315 *1488:DE 26.473 
31 *865:315 *865:336 18.109 
32 *865:336 *865:346 43.7102 
33 *865:346 *865:350 38.4996 
34 *865:350 *1494:DE 18.1432 
35 *865:350 *865:371 42.0738 
36 *865:371 *1501:DE 9.24915 
37 *865:371 *1499:DE 40.7773 
38 *865:336 *1507:DE 11.2566 
39 *865:16 *1495:DE 14.153 
*END

*D_NET *866 0.0207966
*CONN
*I *1277:B I *D sky130_fd_sc_hd__and3_1
*I *1243:B I *D sky130_fd_sc_hd__and3_1
*I *986:C I *D sky130_fd_sc_hd__and3_1
*I *1229:B I *D sky130_fd_sc_hd__and3_1
*I *1261:B I *D sky130_fd_sc_hd__and3_1
*I *972:C I *D sky130_fd_sc_hd__and3_1
*I *1275:B I *D sky130_fd_sc_hd__and3_1
*I *1270:B I *D sky130_fd_sc_hd__and3_1
*I *981:C I *D sky130_fd_sc_hd__and3_1
*I *1238:B I *D sky130_fd_sc_hd__and3_1
*I *2270:X O *D sky130_fd_sc_hd__buf_4
*CAP
1 *1277:B 0.000295044
2 *1243:B 0.000142867
3 *986:C 0.000386909
4 *1229:B 0
5 *1261:B 0.000204236
6 *972:C 0.000221745
7 *1275:B 0
8 *1270:B 0.00034564
9 *981:C 0.000455461
10 *1238:B 0.00027009
11 *2270:X 3.8471e-05
12 *866:88 0.000480452
13 *866:84 0.000771089
14 *866:74 0.00128702
15 *866:70 0.000569761
16 *866:63 0.00127445
17 *866:51 0.00292985
18 *866:25 0.000801101
19 *866:23 0.00267501
20 *866:6 0.0013798
21 *972:C *1165:C 3.67528e-06
22 *972:C *1613:CLK 0
23 *981:C *1050:S1 0
24 *981:C *874:451 1.01263e-05
25 *986:C *986:B 1.73447e-06
26 *986:C *882:304 8.89175e-06
27 *1238:B *2270:A 0.000143708
28 *1243:B *891:269 0.000156168
29 *1243:B *891:294 1.65872e-05
30 *1270:B *1050:S1 0
31 *1270:B *1174:C 6.83031e-06
32 *1270:B *876:196 2.67357e-05
33 *1277:B *876:186 9.40191e-05
34 *1277:B *876:242 8.29571e-05
35 *866:23 *1558:CLK 1.78942e-05
36 *866:23 *1558:DE 2.05184e-05
37 *866:23 *2270:A 1.43698e-05
38 *866:63 *876:242 0.000332396
39 *866:63 *891:294 0.000258188
40 *866:63 *905:53 0
41 *866:70 *891:294 0.000148511
42 *866:74 *1531:CLK 0.000118136
43 *866:74 *882:304 0
44 *866:84 *972:B 0
45 *866:84 *877:302 0
46 *866:84 *880:221 0.000220183
47 *866:84 *882:304 0
48 *866:84 *891:29 0.000119367
49 *866:84 *891:56 0.000262318
50 *972:A *972:C 6.50727e-05
51 *986:A *986:C 2.41483e-05
52 *986:A *866:74 0.000236607
53 *1050:A0 *866:51 4.16147e-05
54 *1051:A3 *981:C 2.652e-05
55 *1075:A0 *986:C 0.000370695
56 *1075:A2 *866:63 0.000186745
57 *1179:A *866:63 0.000121714
58 *1211:B *1277:B 0
59 *1229:C *866:84 2.29693e-05
60 *1277:A *1277:B 5.26719e-05
61 *1389:D *866:84 7.50872e-05
62 *1398:D *981:C 8.92568e-06
63 *1398:DE *981:C 0.000167245
64 *1517:D *866:84 0
65 *1526:D *1238:B 0.000148144
66 *1549:D *1261:B 0.00011818
67 *1558:D *1270:B 0.000117703
68 *1558:D *866:23 0.000137374
69 *1581:D *866:84 4.40158e-05
70 *1613:D *1261:B 0.000160617
71 *1622:D *981:C 0
72 *1622:DE *981:C 9.64737e-05
73 *1:59 *972:C 3.92275e-05
74 *1:59 *866:84 0
75 *1:59 *866:88 2.68066e-05
76 *6:70 *866:63 4.37309e-05
77 *6:87 *866:63 0.000115504
78 *32:22 *1238:B 1.31657e-05
79 *32:59 *981:C 0
80 *427:536 *866:74 0.000567166
81 *427:536 *866:84 0.00046603
82 *487:14 *866:74 7.06318e-05
83 *856:212 *866:84 3.85914e-05
84 *856:333 *1238:B 0.000289554
85 *857:175 *1238:B 7.41203e-05
86 *858:497 *866:63 0.000137136
87 *862:80 *972:C 9.02691e-05
88 *862:80 *1261:B 9.82896e-06
*RES
1 *2270:X *866:6 10.2378 
2 *866:6 *1238:B 27.7567 
3 *866:6 *866:23 16.2523 
4 *866:23 *866:25 4.5 
5 *866:25 *981:C 25.9518 
6 *866:25 *1270:B 21.151 
7 *866:23 *866:51 26.8529 
8 *866:51 *866:63 31.1007 
9 *866:63 *1275:B 9.24915 
10 *866:63 *866:70 4.05102 
11 *866:70 *866:74 14.637 
12 *866:74 *866:84 25.1339 
13 *866:84 *866:88 5.91674 
14 *866:88 *972:C 17.9254 
15 *866:88 *1261:B 17.2456 
16 *866:84 *1229:B 9.24915 
17 *866:74 *986:C 20.115 
18 *866:70 *1243:B 11.6364 
19 *866:51 *1277:B 21.8691 
*END

*D_NET *867 0.0346068
*CONN
*I *1283:B I *D sky130_fd_sc_hd__and3_1
*I *984:C I *D sky130_fd_sc_hd__and3_1
*I *1241:B I *D sky130_fd_sc_hd__and3_1
*I *1272:B I *D sky130_fd_sc_hd__and3_1
*I *983:C I *D sky130_fd_sc_hd__and3_1
*I *1256:B I *D sky130_fd_sc_hd__and3_1
*I *2270:A I *D sky130_fd_sc_hd__buf_4
*I *999:C I *D sky130_fd_sc_hd__and3_1
*I *1246:B I *D sky130_fd_sc_hd__and3_1
*I *989:C I *D sky130_fd_sc_hd__and3_1
*I *1278:B I *D sky130_fd_sc_hd__and3_1
*I *1288:B I *D sky130_fd_sc_hd__and3_1
*I *1240:B I *D sky130_fd_sc_hd__and3_1
*I *994:C I *D sky130_fd_sc_hd__and3_1
*I *1251:B I *D sky130_fd_sc_hd__and3_1
*I *2271:X O *D sky130_fd_sc_hd__buf_4
*CAP
1 *1283:B 0
2 *984:C 0.00121056
3 *1241:B 0
4 *1272:B 0.000214474
5 *983:C 4.5112e-05
6 *1256:B 0
7 *2270:A 0.00074982
8 *999:C 2.49237e-05
9 *1246:B 0.000230165
10 *989:C 0.000367136
11 *1278:B 0.000480066
12 *1288:B 0.000256039
13 *1240:B 0
14 *994:C 0.000114452
15 *1251:B 0.000204559
16 *2271:X 0.00157949
17 *867:192 0.00228597
18 *867:141 0.00134072
19 *867:109 0.000749324
20 *867:94 0.00106813
21 *867:79 0.00096675
22 *867:77 0.00167138
23 *867:67 0.00224942
24 *867:61 0.00187399
25 *867:50 0.000850264
26 *867:46 0.00133551
27 *867:33 0.00100998
28 *867:22 0.000504631
29 *867:20 0.00164977
30 *867:16 0.00206834
31 *983:C *983:B 1.45538e-05
32 *984:C *1401:CLK 0.000269254
33 *989:C *877:247 5.73651e-06
34 *989:C *877:262 1.09739e-05
35 *994:C *877:170 3.32461e-05
36 *999:C *877:211 5.78939e-06
37 *1246:B *875:230 1.00901e-05
38 *1246:B *880:207 0.00015607
39 *1288:B *874:535 0.000334526
40 *1288:B *882:107 0.000115934
41 *2270:A *1174:B 0
42 *2270:A *874:418 0
43 *2270:A *875:189 8.83849e-05
44 *867:16 *1187:B 0
45 *867:16 *1571:CLK 0
46 *867:16 *880:41 0
47 *867:16 *903:215 0
48 *867:16 *903:230 0
49 *867:20 *1571:CLK 0
50 *867:20 *1635:CLK 4.90621e-05
51 *867:20 *874:326 7.42458e-05
52 *867:20 *903:230 0
53 *867:22 *1635:CLK 2.16355e-05
54 *867:33 *1635:CLK 0.000313631
55 *867:33 *874:326 0.000382011
56 *867:33 *874:328 0.000157447
57 *867:33 *895:27 5.11292e-05
58 *867:46 *874:328 5.96909e-05
59 *867:46 *874:334 0.000153472
60 *867:46 *875:112 0.000209194
61 *867:46 *903:230 0
62 *867:50 *875:112 0.000356929
63 *867:61 *983:B 0.000120768
64 *867:61 *1336:B 3.07848e-05
65 *867:61 *874:348 5.37077e-05
66 *867:61 *874:354 9.59264e-05
67 *867:61 *877:170 8.74597e-05
68 *867:67 *983:B 9.62952e-05
69 *867:67 *1592:CLK 4.24445e-05
70 *867:67 *875:166 0.000349535
71 *867:77 *892:149 0
72 *867:79 *1320:B 6.09513e-05
73 *867:79 *874:535 4.9e-05
74 *867:141 *877:211 1.56911e-05
75 *867:192 *1401:CLK 1.41976e-05
76 *867:192 *1635:CLK 5.04829e-06
77 *989:A *989:C 0.000258128
78 *999:A *2270:A 3.00174e-06
79 *999:A *867:141 0
80 *1020:A2 *867:16 0.000114271
81 *1066:A2 *984:C 2.85531e-06
82 *1116:A1 *867:192 0.000443035
83 *1140:A0 *1278:B 0
84 *1140:A2 *1278:B 0
85 *1141:A3 *867:141 0
86 *1142:A1 *1278:B 0.000149181
87 *1208:A *1272:B 0.000206718
88 *1238:B *2270:A 0.000143708
89 *1256:A *867:67 7.51524e-05
90 *1379:D *867:16 5.34249e-06
91 *1379:DE *867:16 5.82396e-05
92 *1400:D *983:C 1.41976e-05
93 *1401:D *984:C 9.88697e-05
94 *1416:D *867:141 0.00012136
95 *1475:D *867:16 0
96 *1496:D *867:50 0.000289554
97 *1496:DE *867:61 3.21375e-05
98 *1526:D *2270:A 0.000153225
99 *1528:D *867:61 0.000112361
100 *1539:D *1251:B 0.000110297
101 *1544:D *867:77 5.48187e-06
102 *1571:D *867:16 4.25669e-05
103 *1571:D *867:20 3.44412e-06
104 *1587:DE *867:67 0.000102632
105 *1590:D *2270:A 0
106 *1592:D *867:67 0
107 *1603:D *867:46 0.000144085
108 *1608:DE *867:141 3.46033e-05
109 *1619:DE *867:67 0
110 *1625:D *984:C 0
111 *1635:D *867:20 1.71351e-05
112 *1635:D *867:192 5.49079e-06
113 *1635:DE *867:192 2.40602e-05
114 *2266:A *867:46 0
115 *3:55 *867:61 0
116 *9:44 *1278:B 0
117 *9:59 *989:C 0.000118166
118 *9:59 *1278:B 0
119 *9:63 *989:C 4.27003e-05
120 *9:63 *1278:B 0
121 *9:72 *989:C 2.15721e-05
122 *9:72 *1246:B 4.92721e-05
123 *20:55 *1288:B 8.96126e-06
124 *20:55 *867:79 4.12111e-05
125 *20:68 *867:79 6.26582e-05
126 *20:68 *867:141 1.02227e-05
127 *123:62 *867:16 0.000164164
128 *318:24 *1278:B 3.17869e-05
129 *418:194 *867:46 0
130 *418:207 *1272:B 3.74146e-05
131 *418:215 *1288:B 0
132 *541:14 *867:94 0.00115171
133 *856:149 *867:77 7.97249e-05
134 *856:168 *867:77 0.00010675
135 *856:333 *984:C 0.00021051
136 *856:333 *2270:A 1.46862e-05
137 *857:108 *867:50 0
138 *857:108 *867:67 0.000214073
139 *857:175 *2270:A 0
140 *859:67 *867:141 1.94472e-05
141 *860:70 *984:C 3.43719e-05
142 *860:70 *867:192 0.000372782
143 *863:47 *867:192 3.33645e-05
144 *866:23 *2270:A 1.43698e-05
*RES
1 *2271:X *867:16 47.5597 
2 *867:16 *867:20 16.7133 
3 *867:20 *867:22 1.278 
4 *867:22 *1251:B 12.191 
5 *867:22 *867:33 14.2218 
6 *867:33 *994:C 15.9434 
7 *867:33 *867:46 17.9291 
8 *867:46 *867:50 19.2048 
9 *867:50 *1240:B 9.24915 
10 *867:50 *867:61 13.0139 
11 *867:61 *867:67 30.8921 
12 *867:67 *867:77 26.1776 
13 *867:77 *867:79 7.64553 
14 *867:79 *1288:B 21.0117 
15 *867:79 *867:94 18.5339 
16 *867:94 *1278:B 30.8777 
17 *867:94 *867:109 7.99641 
18 *867:109 *989:C 21.6683 
19 *867:109 *1246:B 18.3836 
20 *867:77 *867:141 18.4798 
21 *867:141 *999:C 9.77964 
22 *867:141 *2270:A 37.6933 
23 *867:67 *1256:B 9.24915 
24 *867:61 *983:C 14.8342 
25 *867:46 *1272:B 17.2456 
26 *867:20 *867:192 23.1246 
27 *867:192 *1241:B 9.24915 
28 *867:192 *984:C 38.8143 
29 *867:16 *1283:B 13.7491 
*END

*D_NET *868 0.0318626
*CONN
*I *1279:B I *D sky130_fd_sc_hd__and3_1
*I *973:C I *D sky130_fd_sc_hd__and3_1
*I *1230:B I *D sky130_fd_sc_hd__and3_1
*I *1249:B I *D sky130_fd_sc_hd__and3_1
*I *1281:B I *D sky130_fd_sc_hd__and3_1
*I *995:C I *D sky130_fd_sc_hd__and3_1
*I *1252:B I *D sky130_fd_sc_hd__and3_1
*I *978:C I *D sky130_fd_sc_hd__and3_1
*I *1267:B I *D sky130_fd_sc_hd__and3_1
*I *1235:B I *D sky130_fd_sc_hd__and3_1
*I *1284:B I *D sky130_fd_sc_hd__and3_1
*I *992:C I *D sky130_fd_sc_hd__and3_1
*I *1266:B I *D sky130_fd_sc_hd__and3_1
*I *1291:B I *D sky130_fd_sc_hd__and3_1
*I *2272:X O *D sky130_fd_sc_hd__buf_4
*CAP
1 *1279:B 4.51842e-05
2 *973:C 0.000171086
3 *1230:B 0
4 *1249:B 0
5 *1281:B 0.000949842
6 *995:C 2.93761e-05
7 *1252:B 0.000693155
8 *978:C 0.000376018
9 *1267:B 0.000612866
10 *1235:B 0
11 *1284:B 0.000186185
12 *992:C 0
13 *1266:B 0.00035772
14 *1291:B 5.4086e-05
15 *2272:X 0.000216702
16 *868:177 0.00120689
17 *868:109 0.00238835
18 *868:96 0.00212267
19 *868:77 0.0011573
20 *868:71 0.00122914
21 *868:69 0.000348135
22 *868:67 0.00133135
23 *868:56 0.0012693
24 *868:29 0.001406
25 *868:27 0.00085346
26 *868:25 0.00200172
27 *868:14 0.000694129
28 *868:10 0.000659689
29 *973:C *1230:C 0.000352809
30 *973:C *875:274 8.71746e-05
31 *978:C *1035:S0 0
32 *978:C *1480:DE 0
33 *1252:B *1604:CLK 0.000364369
34 *1266:B *894:229 0.000137345
35 *1266:B *903:79 5.37077e-05
36 *1267:B *1035:S0 0
37 *1267:B *1395:CLK 1.43848e-05
38 *1267:B *1459:CLK 0
39 *1267:B *1459:DE 0.000240677
40 *1267:B *1480:DE 0
41 *1267:B *892:176 2.36617e-05
42 *1267:B *892:178 8.07227e-05
43 *868:10 *884:185 8.90486e-05
44 *868:10 *904:36 0.000259991
45 *868:14 *903:67 0
46 *868:14 *904:36 0.000743272
47 *868:27 *903:67 0.000454815
48 *868:27 *903:69 0.000985847
49 *868:27 *904:36 0
50 *868:29 *903:69 0.000153714
51 *868:29 *903:79 0.000110413
52 *868:56 *903:79 2.16355e-05
53 *868:67 *877:82 0.000449583
54 *868:69 *877:82 1.03594e-05
55 *868:69 *877:84 0.000100634
56 *868:71 *1188:B 0
57 *868:71 *877:84 0.000505596
58 *868:77 *1188:B 0
59 *868:96 *880:59 9.08421e-05
60 *868:96 *893:255 0
61 *868:109 *1480:DE 4.08862e-05
62 *868:177 *1195:B 0.000572588
63 *868:177 *903:67 7.14746e-05
64 *973:A *973:C 0.000317344
65 *973:A *868:177 7.25324e-06
66 *992:A *868:56 5.12382e-05
67 *1030:A0 *1266:B 0
68 *1030:A1 *1266:B 1.11039e-05
69 *1030:A1 *868:56 3.5592e-05
70 *1030:A2 *1266:B 6.08467e-05
71 *1030:A3 *1266:B 5.19705e-05
72 *1030:A3 *868:29 2.4433e-05
73 *1036:A3 *978:C 0.000242834
74 *1106:A2 *868:67 4.01056e-05
75 *1120:S0 *868:96 0.000393753
76 *1122:A1 *868:96 0.000649065
77 *1183:A *868:10 0.000324166
78 *1183:C *868:10 0.00011818
79 *1267:C *1267:B 0
80 *1281:A *1281:B 6.15869e-05
81 *1284:C *1284:B 6.93171e-05
82 *1291:C *1291:B 6.73917e-07
83 *1390:D *973:C 3.13805e-06
84 *1395:D *978:C 0
85 *1395:D *868:109 5.36642e-05
86 *1412:D *868:71 0.000474332
87 *1459:D *1267:B 4.31485e-06
88 *1476:D *868:96 6.27782e-05
89 *1508:D *1284:B 0
90 *1515:D *868:27 0
91 *1540:D *1252:B 0.00022067
92 *1567:D *868:10 7.14746e-05
93 *1567:D *868:14 8.62625e-06
94 *1579:D *868:25 1.05374e-05
95 *1579:D *868:27 0.000141991
96 *1604:D *1252:B 4.54655e-05
97 *1604:DE *1252:B 3.37073e-06
98 *1604:DE *868:71 0
99 *13:34 *868:56 7.70866e-05
100 *13:34 *868:67 0.000160756
101 *16:30 *1284:B 0
102 *29:71 *868:109 0.000167692
103 *69:138 *1279:B 6.08467e-05
104 *418:87 *868:27 0
105 *418:89 *868:27 0
106 *418:142 *1284:B 0.000225108
107 *418:142 *868:67 0.000223277
108 *418:142 *868:69 4.69211e-05
109 *418:142 *868:71 6.59545e-05
110 *418:142 *868:77 0.000385244
111 *424:73 *868:10 0
112 *424:73 *868:14 0
113 *424:297 *868:96 1.00885e-05
114 *424:325 *868:96 0.000355463
115 *451:14 *868:56 1.15571e-05
116 *524:16 *868:96 3.00829e-05
117 *859:39 *978:C 0.000106824
118 *860:103 *868:67 0
*RES
1 *2272:X *868:10 22.3996 
2 *868:10 *868:14 17.9591 
3 *868:14 *1291:B 9.97254 
4 *868:14 *868:25 7.99641 
5 *868:25 *868:27 25.5014 
6 *868:27 *868:29 4.73876 
7 *868:29 *1266:B 21.2932 
8 *868:29 *868:56 21.5239 
9 *868:56 *992:C 9.24915 
10 *868:56 *868:67 17.5253 
11 *868:67 *868:69 1.832 
12 *868:69 *868:71 11.798 
13 *868:71 *868:77 8.13406 
14 *868:77 *1284:B 18.9032 
15 *868:77 *868:96 35.4665 
16 *868:96 *1235:B 9.24915 
17 *868:96 *868:109 25.7459 
18 *868:109 *1267:B 25.5168 
19 *868:109 *978:C 21.3441 
20 *868:71 *1252:B 27.4454 
21 *868:69 *995:C 14.2796 
22 *868:67 *1281:B 26.6738 
23 *868:27 *1249:B 13.7491 
24 *868:25 *868:177 21.6144 
25 *868:177 *1230:B 9.24915 
26 *868:177 *973:C 16.6519 
27 *868:10 *1279:B 14.4725 
*END

*D_NET *869 0.0187774
*CONN
*I *1236:B I *D sky130_fd_sc_hd__and3_1
*I *1247:B I *D sky130_fd_sc_hd__and3_1
*I *990:C I *D sky130_fd_sc_hd__and3_1
*I *977:C I *D sky130_fd_sc_hd__and3_1
*I *1234:B I *D sky130_fd_sc_hd__and3_1
*I *987:C I *D sky130_fd_sc_hd__and3_1
*I *1276:B I *D sky130_fd_sc_hd__and3_1
*I *1244:B I *D sky130_fd_sc_hd__and3_1
*I *1002:C I *D sky130_fd_sc_hd__and3_1
*I *1259:B I *D sky130_fd_sc_hd__and3_1
*I *2273:X O *D sky130_fd_sc_hd__buf_4
*CAP
1 *1236:B 0
2 *1247:B 0
3 *990:C 0.000242408
4 *977:C 0.000100839
5 *1234:B 0.000339669
6 *987:C 1.54401e-05
7 *1276:B 0.000603427
8 *1244:B 0.000401482
9 *1002:C 0
10 *1259:B 0.000122353
11 *2273:X 0.000162834
12 *869:52 0.00137433
13 *869:48 0.000615949
14 *869:46 0.000695769
15 *869:44 0.000930962
16 *869:29 0.000978534
17 *869:16 0.00117061
18 *869:14 0.0011532
19 *869:12 0.000796876
20 *869:10 0.000823752
21 *977:C *1394:CLK 3.07828e-05
22 *1234:B *894:294 2.23124e-05
23 *1234:B *894:300 5.8256e-05
24 *1244:B *894:51 0
25 *869:16 *1611:CLK 0
26 *869:16 *884:123 0
27 *869:44 *1394:CLK 0.000380985
28 *869:44 *1611:CLK 0.000302423
29 *869:52 *894:51 0.000242614
30 *987:B *987:C 1.21461e-06
31 *990:A *990:C 4.33655e-05
32 *1002:A *869:29 0.000108087
33 *1081:A2 *1276:B 0.000289512
34 *1212:B *1276:B 0.000527492
35 *1236:A *869:10 3.27973e-05
36 *1236:A *869:12 3.37176e-05
37 *1332:B *869:10 0.000170184
38 *1332:C *869:10 0.000170184
39 *1340:C *869:52 0.000225124
40 *1404:D *869:52 0.000527806
41 *1404:DE *869:44 0
42 *1404:DE *869:46 0
43 *1522:D *1234:B 0.000111722
44 *1547:D *1259:B 2.99929e-05
45 *1547:D *869:16 0.000106657
46 *1611:D *869:29 1.07985e-05
47 *1611:D *869:44 0.000108366
48 *1628:DE *869:48 0.000147756
49 *1628:DE *869:52 2.36969e-05
50 *7:26 *1244:B 7.86847e-05
51 *7:73 *1244:B 2.60241e-05
52 *7:73 *1276:B 4.63671e-05
53 *7:82 *1276:B 2.61012e-05
54 *10:37 *869:12 0
55 *10:37 *869:14 0
56 *127:57 *869:46 1.77537e-06
57 *127:57 *869:48 2.64881e-05
58 *276:12 *869:10 4.77834e-05
59 *276:12 *869:12 5.03545e-06
60 *417:153 *990:C 2.85719e-05
61 *417:168 *869:14 6.43474e-05
62 *417:168 *869:16 0.00139887
63 *417:183 *1259:B 0
64 *419:81 *869:16 0
65 *419:89 *869:44 7.14746e-05
66 *419:95 *869:44 0.000664816
67 *419:97 *869:44 0.000102632
68 *419:99 *869:44 3.54714e-05
69 *419:99 *869:46 0.000251628
70 *419:99 *869:48 0.000596662
71 *419:99 *869:52 0.000103563
72 *427:52 *869:12 0.000236099
73 *427:58 *990:C 0.000171288
74 *427:58 *869:12 3.58321e-05
75 *427:58 *869:14 3.98548e-05
76 *427:64 *869:16 3.2832e-05
77 *427:68 *1259:B 3.87501e-05
78 *427:68 *869:16 9.22013e-06
79 *427:74 *1259:B 9.47963e-05
80 *485:20 *869:12 0
81 *856:30 *869:12 0
82 *857:365 *869:44 7.8756e-07
83 *857:381 *869:44 0.000307344
*RES
1 *2273:X *869:10 20.602 
2 *869:10 *869:12 18.8573 
3 *869:12 *869:14 3.493 
4 *869:14 *869:16 26.7471 
5 *869:16 *1259:B 17.2421 
6 *869:16 *869:29 8.64747 
7 *869:29 *1002:C 9.24915 
8 *869:29 *869:44 32.3585 
9 *869:44 *869:46 4.53113 
10 *869:46 *869:48 10.5523 
11 *869:48 *869:52 19.6201 
12 *869:52 *1244:B 24.8261 
13 *869:52 *1276:B 26.6589 
14 *869:48 *987:C 14.0144 
15 *869:46 *1234:B 18.9094 
16 *869:44 *977:C 15.6804 
17 *869:14 *990:C 17.8966 
18 *869:12 *1247:B 13.7491 
19 *869:10 *1236:B 13.7491 
*END

*D_NET *870 0.0309988
*CONN
*I *1265:B I *D sky130_fd_sc_hd__and3_1
*I *976:C I *D sky130_fd_sc_hd__and3_1
*I *1255:B I *D sky130_fd_sc_hd__and3_1
*I *1287:B I *D sky130_fd_sc_hd__and3_1
*I *980:C I *D sky130_fd_sc_hd__and3_1
*I *1269:B I *D sky130_fd_sc_hd__and3_1
*I *1237:B I *D sky130_fd_sc_hd__and3_1
*I *993:C I *D sky130_fd_sc_hd__and3_1
*I *1250:B I *D sky130_fd_sc_hd__and3_1
*I *1242:B I *D sky130_fd_sc_hd__and3_1
*I *985:C I *D sky130_fd_sc_hd__and3_1
*I *988:C I *D sky130_fd_sc_hd__and3_1
*I *1245:B I *D sky130_fd_sc_hd__and3_1
*I *998:C I *D sky130_fd_sc_hd__and3_1
*I *1233:B I *D sky130_fd_sc_hd__and3_1
*I *2274:X O *D sky130_fd_sc_hd__buf_4
*CAP
1 *1265:B 0.000226063
2 *976:C 0.00022058
3 *1255:B 0.000537074
4 *1287:B 0.000176876
5 *980:C 1.54401e-05
6 *1269:B 0.00123705
7 *1237:B 0
8 *993:C 9.63465e-05
9 *1250:B 3.46626e-05
10 *1242:B 0
11 *985:C 0.000132555
12 *988:C 0.00025855
13 *1245:B 0.000138382
14 *998:C 1.98163e-05
15 *1233:B 7.52414e-05
16 *2274:X 0.00115892
17 *870:106 0.000549256
18 *870:104 0.000657546
19 *870:98 0.00139777
20 *870:88 0.00125939
21 *870:82 0.00103066
22 *870:76 0.00106462
23 *870:64 0.00164281
24 *870:62 0.000602198
25 *870:56 0.00141606
26 *870:44 0.00126533
27 *870:35 0.000470067
28 *870:27 0.000798163
29 *870:14 0.000455986
30 *870:8 0.0016384
31 *976:C *1393:CLK 3.79145e-06
32 *980:C *980:B 1.21461e-06
33 *985:C *878:184 5.37587e-06
34 *985:C *878:197 1.4129e-06
35 *988:C *1341:C 1.73447e-06
36 *993:C *878:160 2.08274e-05
37 *993:C *878:174 5.04829e-06
38 *1233:B *878:129 0.000159032
39 *1255:B *1351:C 7.50872e-05
40 *1255:B *878:148 3.98252e-05
41 *1255:B *878:258 4.71853e-05
42 *1255:B *878:267 0.000384265
43 *1269:B *1269:C 1.24194e-05
44 *1287:B *1287:C 6.05669e-05
45 *870:14 *888:138 6.1501e-05
46 *870:14 *888:149 7.39546e-05
47 *870:27 *878:129 0.000290668
48 *870:27 *878:142 0.000112361
49 *870:35 *878:142 0.00115113
50 *870:56 *1287:C 7.88662e-05
51 *870:56 *1479:DE 4.27074e-05
52 *870:56 *878:148 0.000136646
53 *870:56 *888:62 3.24457e-05
54 *870:56 *888:75 0.000103692
55 *870:56 *888:86 5.35128e-05
56 *870:62 *1287:C 0.000189618
57 *870:62 *1479:DE 0.000212796
58 *870:82 *878:154 0.00102919
59 *870:82 *878:160 0.000195561
60 *870:82 *880:425 0
61 *870:98 *1530:CLK 0.000209778
62 *870:98 *880:425 0
63 *870:98 *890:267 2.69685e-05
64 *870:104 *1071:S0 0.000360883
65 *870:104 *1626:CLK 0.000358231
66 *870:104 *890:265 6.08467e-05
67 *870:104 *890:267 0.000138872
68 *870:106 *878:184 0
69 *980:A *870:64 6.6516e-05
70 *980:A *870:76 0.000226147
71 *985:A *985:C 6.08467e-05
72 *988:A *988:C 0.000263116
73 *988:A *1245:B 9.905e-05
74 *988:A *870:106 2.24484e-05
75 *998:A *870:35 6.08467e-05
76 *1026:A1 *1255:B 0.000229173
77 *1026:A1 *870:56 0.000129744
78 *1045:A0 *870:82 7.60183e-05
79 *1047:A1 *870:82 4.04935e-05
80 *1070:A1 *870:98 3.13557e-05
81 *1072:A1 *870:98 0
82 *1110:A0 *870:98 0.000151701
83 *1110:A1 *870:98 2.32176e-05
84 *1112:A0 *870:98 0
85 *1112:A1 *870:98 0
86 *1237:A *870:76 6.98337e-06
87 *1237:A *870:82 2.55478e-05
88 *1255:C *1255:B 0
89 *1297:C *976:C 3.23076e-06
90 *1297:C *870:35 1.02671e-05
91 *1301:A *870:82 0
92 *1319:C *870:56 2.23105e-05
93 *1346:A *870:82 0.000223296
94 *1346:A *870:88 0.000153119
95 *1351:A *1255:B 2.01874e-05
96 *1410:D *993:C 2.41274e-06
97 *1410:D *870:98 0
98 *1415:D *870:56 0.000223644
99 *1521:D *1233:B 6.27718e-05
100 *1521:D *870:27 6.27782e-05
101 *1521:DE *870:14 4.69495e-06
102 *1525:D *870:76 0.000160388
103 *1530:D *870:98 5.45575e-05
104 *1575:D *1287:B 0.000299071
105 *1602:D *1250:B 6.28701e-05
106 *1602:D *870:88 0.000107496
107 *1607:D *870:56 8.8179e-05
108 *5:76 *870:104 0
109 *5:80 *870:104 0
110 *5:80 *870:106 0
111 *8:19 *1245:B 0.000107502
112 *14:9 *870:88 9.76996e-05
113 *14:9 *870:98 0.000106792
114 *19:58 *870:56 4.76794e-05
115 *19:64 *870:56 0.000351536
116 *19:83 *1255:B 4.34841e-05
117 *27:42 *1265:B 3.63947e-05
118 *27:42 *870:8 4.34841e-05
119 *31:20 *870:76 5.56367e-05
120 *31:20 *870:82 0
121 *31:24 *870:76 8.12793e-05
122 *69:503 *870:56 0.000441354
123 *124:242 *1287:B 1.13735e-05
124 *125:93 *870:56 2.13778e-05
125 *125:93 *870:62 0.00027817
126 *125:93 *870:64 0.00022778
127 *125:93 *870:76 0.000121726
128 *125:97 *870:76 4.16032e-05
129 *125:99 *870:98 0
130 *126:139 *870:104 0
131 *341:20 *870:82 0
132 *417:477 *870:27 0.000112361
133 *417:477 *870:35 1.65872e-05
134 *417:487 *976:C 0.000104676
135 *427:404 *870:35 6.27718e-05
136 *427:404 *870:56 0.000208621
137 *427:421 *870:56 0.000253367
138 *427:431 *870:62 0
139 *427:442 *870:76 0.000111719
140 *427:497 *1245:B 7.49316e-05
141 *427:497 *870:104 7.14746e-05
142 *427:497 *870:106 0.000316675
143 *465:12 *870:82 1.64597e-05
144 *465:12 *870:88 0.000106168
145 *465:12 *870:98 0
146 *465:24 *870:106 0
147 *485:20 *870:98 7.13655e-06
148 *517:10 *870:98 0
149 *864:53 *870:14 2.60486e-05
150 *864:61 *870:14 6.68963e-06
*RES
1 *2274:X *870:8 26.4901 
2 *870:8 *870:14 15.3998 
3 *870:14 *1233:B 11.6605 
4 *870:14 *870:27 9.10562 
5 *870:27 *870:35 19.5595 
6 *870:35 *998:C 9.77964 
7 *870:35 *870:44 4.5 
8 *870:44 *870:56 36.8365 
9 *870:56 *870:62 17.6849 
10 *870:62 *870:64 3.90826 
11 *870:64 *870:76 15.8859 
12 *870:76 *870:82 29.0666 
13 *870:82 *870:88 10.5168 
14 *870:88 *870:98 36.6509 
15 *870:98 *870:104 17.1608 
16 *870:104 *870:106 5.56926 
17 *870:106 *1245:B 17.9655 
18 *870:106 *988:C 17.8966 
19 *870:104 *985:C 15.6782 
20 *870:98 *1242:B 9.24915 
21 *870:88 *1250:B 9.97254 
22 *870:82 *993:C 16.3112 
23 *870:76 *1237:B 9.24915 
24 *870:64 *1269:B 32.6057 
25 *870:62 *980:C 14.0144 
26 *870:56 *1287:B 18.9335 
27 *870:44 *1255:B 27.5219 
28 *870:27 *976:C 19.1684 
29 *870:8 *1265:B 12.7456 
*END

*D_NET *871 0.0337869
*CONN
*I *1263:B I *D sky130_fd_sc_hd__and3_1
*I *1280:B I *D sky130_fd_sc_hd__and3_1
*I *996:C I *D sky130_fd_sc_hd__and3_1
*I *1253:B I *D sky130_fd_sc_hd__and3_1
*I *1292:B I *D sky130_fd_sc_hd__and3_1
*I *1273:B I *D sky130_fd_sc_hd__and3_1
*I *1282:B I *D sky130_fd_sc_hd__and3_1
*I *1274:B I *D sky130_fd_sc_hd__and3_1
*I *1003:C I *D sky130_fd_sc_hd__and3_1
*I *1260:B I *D sky130_fd_sc_hd__and3_1
*I *1248:B I *D sky130_fd_sc_hd__and3_1
*I *991:C I *D sky130_fd_sc_hd__and3_1
*I *974:C I *D sky130_fd_sc_hd__and3_1
*I *2275:X O *D sky130_fd_sc_hd__buf_6
*CAP
1 *1263:B 0.000118122
2 *1280:B 7.40332e-05
3 *996:C 0.00090721
4 *1253:B 0
5 *1292:B 0.000158529
6 *1273:B 0
7 *1282:B 0.000900092
8 *1274:B 0.000497802
9 *1003:C 0.000118337
10 *1260:B 2.12792e-05
11 *1248:B 0.000287939
12 *991:C 5.44884e-05
13 *974:C 0
14 *2275:X 0.000458212
15 *871:167 0.0022495
16 *871:125 0.00294376
17 *871:111 0.0018684
18 *871:105 0.00124977
19 *871:84 0.00123944
20 *871:65 0.00153756
21 *871:46 0.0015717
22 *871:25 0.000743298
23 *871:23 0.00197729
24 *871:21 0.00100964
25 *871:19 0.00175609
26 *871:8 0.00122663
27 *991:C *1344:B 1.16258e-05
28 *991:C *879:51 2.02035e-05
29 *996:C *1349:C 8.41637e-05
30 *996:C *879:143 1.21461e-06
31 *996:C *889:87 0
32 *1003:C *879:81 0.000114659
33 *1003:C *879:85 3.28416e-06
34 *1248:B *875:330 2.52287e-06
35 *1263:B *880:320 0.000211573
36 *1263:B *887:272 1.88014e-05
37 *1274:B *1085:S0 0
38 *1274:B *876:172 0.000237494
39 *1274:B *876:186 0
40 *1282:B *1186:C 3.89287e-05
41 *1282:B *1282:C 3.48257e-05
42 *1282:B *1466:CLK 0
43 *1282:B *876:172 0.000110577
44 *1282:B *876:301 0.000276577
45 *1282:B *889:174 0
46 *1292:B *905:22 0.000155874
47 *871:8 *872:23 7.22498e-05
48 *871:8 *872:67 0.000206635
49 *871:19 *1016:S0 0.00024642
50 *871:19 *872:67 0.000113932
51 *871:19 *880:320 7.39701e-05
52 *871:21 *1016:S0 6.21109e-05
53 *871:21 *2286:A 0
54 *871:21 *2291:A 1.59906e-05
55 *871:21 *880:320 2.95757e-05
56 *871:21 *883:31 4.77274e-05
57 *871:21 *887:10 0
58 *871:21 *887:12 0
59 *871:21 *887:14 0
60 *871:25 *1408:CLK 0.000361436
61 *871:25 *2289:A 1.29167e-05
62 *871:25 *879:51 8.84069e-05
63 *871:25 *895:47 7.75178e-06
64 *871:25 *897:14 0.000356381
65 *871:46 *1344:B 8.31206e-05
66 *871:46 *1344:C 4.35885e-05
67 *871:46 *1408:CLK 1.91246e-05
68 *871:46 *879:51 3.14976e-05
69 *871:65 *1344:B 6.64392e-05
70 *871:65 *1344:C 1.65166e-05
71 *871:65 *1644:CLK 0.000167196
72 *871:65 *875:330 3.70145e-05
73 *871:65 *881:111 0
74 *871:65 *889:106 7.4846e-05
75 *871:84 *875:343 1.73515e-07
76 *871:84 *875:354 5.17016e-06
77 *871:84 *879:81 0.000141552
78 *871:84 *889:91 0.000601951
79 *871:105 *1580:CLK 6.27718e-05
80 *871:111 *905:22 0.000595665
81 *871:125 *905:22 7.37562e-05
82 *871:167 *897:14 1.67411e-05
83 *871:167 *897:50 1.86635e-05
84 *974:A *871:8 6.50727e-05
85 *1065:A1 *871:125 2.08165e-05
86 *1161:A2 *871:105 3.55422e-05
87 *1178:A *1282:B 0
88 *1253:A *996:C 9.89572e-05
89 *1253:A *871:167 2.22974e-05
90 *1274:A *1274:B 1.41181e-05
91 *1344:A *1248:B 4.83591e-05
92 *1370:A *871:125 0.000453648
93 *1413:D *996:C 0.000145892
94 *1413:DE *996:C 9.2346e-06
95 *1455:D *871:19 0.000127228
96 *1455:D *871:21 2.65661e-05
97 *1466:D *1282:B 0
98 *1472:D *871:21 0
99 *1497:DE *871:111 1.66667e-05
100 *1498:D *871:125 6.27718e-05
101 *1536:D *1248:B 0.000107496
102 *1541:D *996:C 2.37138e-05
103 *1541:DE *996:C 3.39878e-06
104 *1548:D *871:84 0.000258703
105 *1551:D *1263:B 6.3657e-05
106 *1551:D *871:19 2.7056e-05
107 *1561:D *871:111 0.000138047
108 *1570:D *1282:B 0.000113096
109 *1605:D *996:C 0.000233248
110 *1612:D *871:65 0
111 *1632:D *871:46 1.10274e-05
112 *1632:D *871:65 6.46815e-05
113 *1644:DE *871:65 0.000786656
114 *5:42 *1282:B 0
115 *5:42 *871:125 0.000188221
116 *11:17 *871:19 0.000109657
117 *11:17 *871:21 0.00067804
118 *11:23 *871:21 0.000166426
119 *11:36 *871:21 0
120 *11:61 *871:25 0
121 *23:25 *871:19 0
122 *25:39 *1003:C 7.26606e-05
123 *25:39 *871:105 0.000325134
124 *25:64 *871:65 5.36762e-05
125 *25:64 *871:84 5.04829e-06
126 *121:148 *1292:B 5.20862e-05
127 *121:148 *871:105 1.94472e-05
128 *121:148 *871:111 0.000227463
129 *124:123 *871:125 2.57117e-05
130 *418:447 *871:105 5.41573e-05
131 *423:331 *871:19 0.000147421
132 *423:377 *1292:B 3.82228e-05
133 *479:12 *1274:B 0
134 *856:308 *871:84 1.97872e-05
135 *857:319 *996:C 0.0003918
136 *857:319 *871:65 0
137 *860:34 *871:25 0
138 *863:16 *1280:B 0.000112361
139 *863:45 *871:65 7.89491e-05
*RES
1 *2275:X *871:8 17.3632 
2 *871:8 *974:C 9.24915 
3 *871:8 *871:19 25.7272 
4 *871:19 *871:21 25.0861 
5 *871:21 *871:23 1.41674 
6 *871:23 *871:25 17.404 
7 *871:25 *991:C 15.391 
8 *871:25 *871:46 8.27391 
9 *871:46 *1248:B 13.8548 
10 *871:46 *871:65 40.7102 
11 *871:65 *1260:B 9.82786 
12 *871:65 *871:84 16.0236 
13 *871:84 *1003:C 16.8162 
14 *871:84 *871:105 29.6913 
15 *871:105 *871:111 16.5379 
16 *871:111 *871:125 39.681 
17 *871:125 *1274:B 26.2706 
18 *871:125 *1282:B 36.6547 
19 *871:111 *1273:B 9.24915 
20 *871:105 *1292:B 17.8973 
21 *871:23 *871:167 23.5253 
22 *871:167 *1253:B 9.24915 
23 *871:167 *996:C 38.6637 
24 *871:21 *1280:B 15.0271 
25 *871:19 *1263:B 17.2697 
*END

*D_NET *872 0.0290037
*CONN
*I *946:B I *D sky130_fd_sc_hd__nand2_1
*I *1000:C I *D sky130_fd_sc_hd__and3_1
*I *1257:B I *D sky130_fd_sc_hd__and3_1
*I *1254:B I *D sky130_fd_sc_hd__and3_1
*I *2274:A I *D sky130_fd_sc_hd__buf_4
*I *997:C I *D sky130_fd_sc_hd__and3_1
*I *1286:B I *D sky130_fd_sc_hd__and3_1
*I *1285:B I *D sky130_fd_sc_hd__and3_1
*I *1289:B I *D sky130_fd_sc_hd__and3_1
*I *958:A I *D sky130_fd_sc_hd__nand2_1
*I *1231:B I *D sky130_fd_sc_hd__and3_1
*I *2275:A I *D sky130_fd_sc_hd__buf_6
*I *2276:X O *D sky130_fd_sc_hd__buf_6
*CAP
1 *946:B 0.00108928
2 *1000:C 0.000473008
3 *1257:B 0.00015646
4 *1254:B 0.000912979
5 *2274:A 3.57807e-05
6 *997:C 1.273e-05
7 *1286:B 0
8 *1285:B 0.000695977
9 *1289:B 0.000213139
10 *958:A 0
11 *1231:B 0.000308977
12 *2275:A 0
13 *2276:X 0.000328111
14 *872:153 0.000857695
15 *872:123 0.00101584
16 *872:112 0.000114516
17 *872:86 0.00115361
18 *872:84 0.00132406
19 *872:69 0.00114495
20 *872:67 0.00106842
21 *872:37 0.000805981
22 *872:23 0.0013695
23 *872:16 0.000515186
24 *872:10 0.00180018
25 *946:B *946:A 8.35237e-05
26 *1000:C *1000:B 1.64862e-06
27 *1254:B *888:163 4.2481e-05
28 *1254:B *888:165 0.000156801
29 *1257:B *1641:CLK 0.000377245
30 *1285:B *876:104 0
31 *1285:B *876:121 1.00981e-05
32 *1285:B *881:57 9.2346e-06
33 *1289:B *876:81 0.000102527
34 *1289:B *876:102 0.000125096
35 *872:10 *875:34 0.000124942
36 *872:37 *1519:CLK 0.000757348
37 *872:37 *1615:CLK 0
38 *872:37 *887:293 0
39 *872:37 *887:306 0
40 *872:67 *1417:CLK 0.000426168
41 *872:67 *878:45 9.82896e-06
42 *872:67 *878:57 0.000656049
43 *872:84 *997:B 0.000103139
44 *872:86 *876:104 0
45 *872:86 *888:165 7.09395e-05
46 *872:86 *888:167 3.66465e-05
47 *872:112 *888:165 1.90335e-05
48 *872:123 *888:165 6.63327e-05
49 *872:153 *878:57 0.000188377
50 *947:A *872:16 0.00049362
51 *958:B *1231:B 6.64392e-05
52 *958:B *872:37 0.000114584
53 *974:A *872:67 6.50727e-05
54 *997:A *872:84 0.00052437
55 *1000:A *1000:C 6.27782e-05
56 *1190:B *872:84 0.000294474
57 *1231:A *1231:B 1.26143e-06
58 *1231:C *1231:B 5.67473e-06
59 *1414:D *1254:B 0.000205025
60 *1414:D *872:123 5.53934e-05
61 *1417:D *1000:C 0
62 *1417:D *872:153 0
63 *1478:D *872:84 2.65667e-05
64 *1509:D *1285:B 0.000107496
65 *1510:D *872:86 0.000326453
66 *1519:D *872:37 5.22654e-06
67 *1542:D *1254:B 0
68 *1574:D *872:86 0.000475779
69 *1577:D *1289:B 1.03594e-05
70 *1609:D *1000:C 0.00015324
71 *1609:DE *1000:C 0.000124903
72 *1647:DE *872:10 0.000576926
73 *1671:B *946:B 6.85047e-05
74 *2265:A *946:B 3.31882e-05
75 *2265:A *872:10 0.000340174
76 *2265:A *872:16 6.08467e-05
77 *2279:A *946:B 0.000749717
78 *17:33 *1285:B 0.000217937
79 *18:52 *872:84 8.76513e-05
80 *21:21 *1000:C 6.93171e-05
81 *21:37 *1289:B 0.000156948
82 *21:37 *872:69 7.55529e-05
83 *21:37 *872:153 5.98834e-05
84 *69:414 *946:B 2.55751e-05
85 *69:477 *1254:B 0.000107919
86 *70:184 *872:16 3.31745e-05
87 *77:16 *946:B 2.02035e-05
88 *125:23 *872:37 7.99351e-05
89 *125:54 *1000:C 5.60705e-05
90 *125:54 *872:153 0.00027928
91 *126:16 *1231:B 6.64392e-05
92 *126:16 *872:37 0.000203967
93 *128:20 *872:10 1.9101e-05
94 *417:526 *1000:C 0.000161314
95 *417:526 *872:153 0.000390185
96 *417:539 *1000:C 5.99658e-05
97 *418:418 *1285:B 0.00122087
98 *418:418 *872:86 6.1096e-05
99 *418:431 *1285:B 0.000189753
100 *422:16 *872:10 0.000122687
101 *423:362 *1285:B 0.000416539
102 *423:364 *1285:B 3.20069e-06
103 *427:245 *946:B 7.28933e-05
104 *427:265 *1231:B 0
105 *427:278 *1231:B 0
106 *427:343 *1254:B 2.65268e-05
107 *428:16 *946:B 0
108 *861:13 *872:16 0.000142613
109 *861:13 *872:23 0.000201265
110 *861:13 *872:67 0.00020468
111 *864:34 *1254:B 6.64392e-05
112 *871:8 *872:23 7.22498e-05
113 *871:8 *872:67 0.000206635
114 *871:19 *872:67 0.000113932
*RES
1 *2276:X *872:10 26.8336 
2 *872:10 *872:16 15.785 
3 *872:16 *2275:A 9.24915 
4 *872:16 *872:23 5.16022 
5 *872:23 *872:37 27.2817 
6 *872:37 *1231:B 23.653 
7 *872:37 *958:A 9.24915 
8 *872:23 *872:67 32.5919 
9 *872:67 *872:69 3.07775 
10 *872:69 *1289:B 21.3947 
11 *872:69 *872:84 34.126 
12 *872:84 *872:86 15.5353 
13 *872:86 *1285:B 41.59 
14 *872:86 *1286:B 13.7491 
15 *872:84 *872:112 1.00149 
16 *872:112 *997:C 14.0144 
17 *872:112 *872:123 2.6625 
18 *872:123 *2274:A 14.4725 
19 *872:123 *1254:B 41.5745 
20 *872:67 *872:153 10.137 
21 *872:153 *1257:B 18.3789 
22 *872:153 *1000:C 26.8584 
23 *872:10 *946:B 35.8582 
*END

*D_NET *873 0.0235019
*CONN
*I *982:C I *D sky130_fd_sc_hd__and3_1
*I *1239:B I *D sky130_fd_sc_hd__and3_1
*I *979:C I *D sky130_fd_sc_hd__and3_1
*I *2273:A I *D sky130_fd_sc_hd__buf_4
*I *2271:A I *D sky130_fd_sc_hd__buf_4
*I *1264:B I *D sky130_fd_sc_hd__and3_1
*I *1262:B I *D sky130_fd_sc_hd__and3_1
*I *2272:A I *D sky130_fd_sc_hd__buf_4
*I *1268:B I *D sky130_fd_sc_hd__and3_1
*I *2277:X O *D sky130_fd_sc_hd__buf_6
*CAP
1 *982:C 3.83144e-05
2 *1239:B 0
3 *979:C 0.000169444
4 *2273:A 0
5 *2271:A 0.000138997
6 *1264:B 0
7 *1262:B 0
8 *2272:A 0.000433275
9 *1268:B 2.12792e-05
10 *2277:X 0
11 *873:91 0.00124605
12 *873:80 0.00226832
13 *873:55 0.00227472
14 *873:42 0.00247592
15 *873:32 0.00185696
16 *873:30 0.000967826
17 *873:24 0.000987169
18 *873:16 0.000628572
19 *873:14 0.00232953
20 *873:6 0.00201056
21 *979:C *1588:CLK 2.45203e-05
22 *2271:A *903:190 0.000237184
23 *2272:A *884:185 5.85071e-05
24 *2272:A *903:52 0.000190134
25 *2272:A *904:36 0
26 *873:14 *1591:CLK 0.000219784
27 *873:14 *898:86 0
28 *873:14 *898:98 0
29 *873:14 *902:34 0
30 *873:14 *902:45 0
31 *873:14 *902:58 0
32 *873:16 *885:34 0
33 *873:24 *885:10 0
34 *873:55 *903:52 0.000889131
35 *873:80 *884:210 0.000107451
36 *873:91 *1550:CLK 8.56014e-05
37 *873:91 *1550:DE 7.57302e-06
38 *873:91 *884:210 7.20028e-05
39 *924:B *873:14 0
40 *929:B *873:14 0
41 *934:D *873:14 0.000344099
42 *935:D *873:14 0
43 *937:D *873:14 0
44 *979:A *979:C 6.50586e-05
45 *979:A *873:30 8.52652e-05
46 *1041:A3 *873:42 3.98869e-05
47 *1095:A1 *873:80 1.52578e-05
48 *1095:A2 *873:55 0
49 *1095:A3 *2272:A 8.45422e-05
50 *1095:A3 *873:55 3.15381e-05
51 *1155:S0 *873:55 1.26673e-05
52 *1239:A *873:30 6.12686e-06
53 *1268:A *873:42 5.44346e-05
54 *1268:C *873:55 7.58289e-06
55 *1300:A *873:30 0.000190075
56 *1471:D *2272:A 0.000304866
57 *1527:D *873:24 0.000107496
58 *1527:D *873:30 0.000118166
59 *1550:D *873:91 3.39182e-05
60 *1552:D *2271:A 0.000126666
61 *1552:D *873:91 5.22654e-06
62 *1588:D *873:42 5.48187e-06
63 *1591:D *873:14 0
64 *2:43 *982:C 6.24314e-05
65 *30:43 *979:C 6.12686e-06
66 *68:304 *2271:A 2.15656e-05
67 *68:304 *873:91 0.000283332
68 *69:212 *873:91 0
69 *123:28 *873:55 0.000231136
70 *276:12 *873:30 0
71 *276:12 *873:32 0
72 *417:109 *873:16 0.000429175
73 *417:109 *873:24 0.00021612
74 *418:60 *873:80 4.89251e-05
75 *418:72 *873:80 7.2827e-05
76 *419:12 *873:14 0
77 *419:28 *873:30 0.000167325
78 *423:65 *873:91 0.000233794
79 *424:67 *2272:A 6.73439e-05
80 *424:67 *873:55 0
81 *424:73 *2272:A 1.07248e-05
82 *427:25 *873:16 2.18698e-05
83 *427:41 *873:30 9.2346e-06
84 *427:41 *873:32 4.86235e-05
85 *427:41 *873:42 7.49933e-05
86 *857:353 *873:42 9.01708e-05
87 *857:363 *873:42 2.89857e-05
*RES
1 *2277:X *873:6 13.7491 
2 *873:6 *873:14 47.0945 
3 *873:14 *873:16 9.30653 
4 *873:16 *873:24 10.8196 
5 *873:24 *873:30 23.1137 
6 *873:30 *873:32 2.24725 
7 *873:32 *873:42 36.3636 
8 *873:42 *1268:B 9.82786 
9 *873:42 *873:55 26.026 
10 *873:55 *2272:A 32.8191 
11 *873:55 *873:80 22.5849 
12 *873:80 *1262:B 9.24915 
13 *873:80 *873:91 27.4196 
14 *873:91 *1264:B 13.7491 
15 *873:91 *2271:A 19.3184 
16 *873:32 *2273:A 13.7491 
17 *873:30 *979:C 16.2328 
18 *873:24 *1239:B 9.24915 
19 *873:16 *982:C 15.0995 
*END

*D_NET *874 0.129004
*CONN
*I *1296:B I *D sky130_fd_sc_hd__and3_1
*I *1328:B I *D sky130_fd_sc_hd__and3_1
*I *1344:B I *D sky130_fd_sc_hd__and3_1
*I *1178:B I *D sky130_fd_sc_hd__and3_1
*I *1338:B I *D sky130_fd_sc_hd__and3_1
*I *1306:B I *D sky130_fd_sc_hd__and3_1
*I *1177:B I *D sky130_fd_sc_hd__and3_1
*I *1305:B I *D sky130_fd_sc_hd__and3_1
*I *1337:B I *D sky130_fd_sc_hd__and3_1
*I *1347:B I *D sky130_fd_sc_hd__and3_1
*I *1315:B I *D sky130_fd_sc_hd__and3_1
*I *1176:B I *D sky130_fd_sc_hd__and3_1
*I *1185:B I *D sky130_fd_sc_hd__and3_1
*I *1309:B I *D sky130_fd_sc_hd__and3_1
*I *1181:B I *D sky130_fd_sc_hd__and3_1
*I *1341:B I *D sky130_fd_sc_hd__and3_1
*I *1307:B I *D sky130_fd_sc_hd__and3_1
*I *1339:B I *D sky130_fd_sc_hd__and3_1
*I *1293:B I *D sky130_fd_sc_hd__and3_1
*I *1325:B I *D sky130_fd_sc_hd__and3_1
*I *1179:B I *D sky130_fd_sc_hd__and3_1
*I *1310:B I *D sky130_fd_sc_hd__and3_1
*I *1342:B I *D sky130_fd_sc_hd__and3_1
*I *1320:B I *D sky130_fd_sc_hd__and3_1
*I *1352:B I *D sky130_fd_sc_hd__and3_1
*I *1171:B I *D sky130_fd_sc_hd__and3_1
*I *1192:B I *D sky130_fd_sc_hd__and3_1
*I *1165:B I *D sky130_fd_sc_hd__and3_1
*I *1182:B I *D sky130_fd_sc_hd__and3_1
*I *1334:B I *D sky130_fd_sc_hd__and3_1
*I *1174:B I *D sky130_fd_sc_hd__and3_1
*I *1302:B I *D sky130_fd_sc_hd__and3_1
*I *1336:B I *D sky130_fd_sc_hd__and3_1
*I *1304:B I *D sky130_fd_sc_hd__and3_1
*I *1331:B I *D sky130_fd_sc_hd__and3_1
*I *1299:B I *D sky130_fd_sc_hd__and3_1
*I *1356:B I *D sky130_fd_sc_hd__and3_1
*I *1324:B I *D sky130_fd_sc_hd__and3_1
*I *1187:B I *D sky130_fd_sc_hd__and3_1
*I *1312:B I *D sky130_fd_sc_hd__and3_1
*I *1168:B I *D sky130_fd_sc_hd__and3_1
*I *1172:B I *D sky130_fd_sc_hd__and3_1
*I *1166:B I *D sky130_fd_sc_hd__and3_1
*I *1294:B I *D sky130_fd_sc_hd__and3_1
*I *1183:B I *D sky130_fd_sc_hd__and3_1
*I *1195:B I *D sky130_fd_sc_hd__and3_1
*I *1313:B I *D sky130_fd_sc_hd__and3_1
*I *1345:B I *D sky130_fd_sc_hd__and3_1
*I *1170:B I *D sky130_fd_sc_hd__and3_1
*I *1180:B I *D sky130_fd_sc_hd__and3_1
*I *1348:B I *D sky130_fd_sc_hd__and3_1
*I *1188:B I *D sky130_fd_sc_hd__and3_1
*I *1316:B I *D sky130_fd_sc_hd__and3_1
*I *1326:B I *D sky130_fd_sc_hd__and3_1
*I *1354:B I *D sky130_fd_sc_hd__and3_1
*I *2278:X O *D sky130_fd_sc_hd__buf_12
*CAP
1 *1296:B 5.50828e-05
2 *1328:B 0
3 *1344:B 0.000303076
4 *1178:B 0
5 *1338:B 0
6 *1306:B 0.000473059
7 *1177:B 0
8 *1305:B 0
9 *1337:B 0
10 *1347:B 0
11 *1315:B 0.000166322
12 *1176:B 0.00014859
13 *1185:B 0.000723853
14 *1309:B 0
15 *1181:B 0.00165414
16 *1341:B 4.4449e-05
17 *1307:B 0.000142295
18 *1339:B 0.000297763
19 *1293:B 0
20 *1325:B 0.000413409
21 *1179:B 0
22 *1310:B 4.51126e-05
23 *1342:B 5.0318e-05
24 *1320:B 0.000326775
25 *1352:B 0.000271341
26 *1171:B 0.00137662
27 *1192:B 0.000315726
28 *1165:B 0
29 *1182:B 0
30 *1334:B 2.36163e-05
31 *1174:B 0.000880233
32 *1302:B 0
33 *1336:B 9.5502e-05
34 *1304:B 0
35 *1331:B 0.000415054
36 *1299:B 5.30369e-05
37 *1356:B 0
38 *1324:B 0
39 *1187:B 0.000511174
40 *1312:B 2.12792e-05
41 *1168:B 5.27099e-05
42 *1172:B 0.00137097
43 *1166:B 7.6882e-05
44 *1294:B 5.26199e-05
45 *1183:B 0.000408854
46 *1195:B 0.000408956
47 *1313:B 4.18965e-05
48 *1345:B 0
49 *1170:B 0.00150358
50 *1180:B 0.00141255
51 *1348:B 0
52 *1188:B 0.000582985
53 *1316:B 0.000114331
54 *1326:B 0.000154369
55 *1354:B 0.000106178
56 *2278:X 0.000772044
57 *874:752 0.00119151
58 *874:744 0.00233806
59 *874:737 0.0030378
60 *874:667 0.00185436
61 *874:652 0.000535183
62 *874:633 0.000738102
63 *874:600 0.00129853
64 *874:594 0.00129918
65 *874:592 0.00187337
66 *874:583 0.00227631
67 *874:535 0.00100562
68 *874:518 0.00199655
69 *874:501 0.00145125
70 *874:488 0.00214108
71 *874:467 0.00231483
72 *874:461 0.00169883
73 *874:459 0.00101178
74 *874:453 0.000743554
75 *874:451 0.00158506
76 *874:438 0.000795481
77 *874:418 0.00110162
78 *874:414 0.00247793
79 *874:362 0.00105131
80 *874:354 0.000856398
81 *874:348 0.000439039
82 *874:344 0.00245671
83 *874:338 0.0013574
84 *874:334 0.00069928
85 *874:328 0.000760642
86 *874:326 0.00185801
87 *874:320 0.00196777
88 *874:312 0.000801353
89 *874:306 0.00221637
90 *874:295 0.000930255
91 *874:280 0.00199496
92 *874:261 0.00235637
93 *874:253 0.000870243
94 *874:244 0.00158467
95 *874:140 0.00297309
96 *874:116 0.000923022
97 *874:103 0.000613286
98 *874:99 0.00129625
99 *874:83 0.00135858
100 *874:81 0.00114987
101 *874:75 0.00162023
102 *874:73 0.00170063
103 *874:69 0.000962886
104 *874:58 0.000632814
105 *874:56 0.000729263
106 *874:54 0.00205995
107 *874:44 0.000758012
108 *874:40 0.00187457
109 *874:34 0.000407646
110 *874:28 0.000917362
111 *1170:B *1490:CLK 1.43698e-05
112 *1170:B *894:212 0.000114659
113 *1171:B *1035:S1 0
114 *1171:B *1480:CLK 0.000106509
115 *1171:B *1480:DE 0.000133759
116 *1171:B *892:155 8.85947e-05
117 *1174:B *1398:CLK 0
118 *1174:B *890:89 0
119 *1180:B *1604:CLK 0.000302352
120 *1180:B *894:212 1.94364e-05
121 *1181:B *1181:C 7.58289e-06
122 *1181:B *881:433 0.000180334
123 *1183:B *1518:CLK 0
124 *1183:B *884:185 1.65872e-05
125 *1183:B *884:189 0
126 *1187:B *1571:CLK 7.72722e-05
127 *1187:B *875:85 0.00032341
128 *1187:B *903:215 1.2693e-05
129 *1192:B *1576:CLK 0
130 *1192:B *1576:DE 7.50722e-05
131 *1294:B *1294:C 4.28856e-07
132 *1299:B *1299:C 2.60273e-06
133 *1306:B *1626:CLK 5.04829e-06
134 *1306:B *878:184 0.00044126
135 *1313:B *904:147 6.50586e-05
136 *1315:B *875:112 2.37827e-05
137 *1320:B *875:230 2.89405e-05
138 *1325:B *876:261 2.8322e-05
139 *1326:B *1294:C 0.000198186
140 *1331:B *893:191 0.000113481
141 *1331:B *893:251 5.99334e-05
142 *1336:B *877:185 2.41274e-06
143 *1336:B *877:200 3.13805e-06
144 *1339:B *1339:C 2.01499e-05
145 *1341:B *1341:C 6.747e-06
146 *1342:B *1630:CLK 2.16355e-05
147 *1344:B *1408:CLK 5.04829e-06
148 *1344:B *879:77 0.000157107
149 *1354:B *875:426 3.82228e-05
150 *874:28 *875:44 0.000394198
151 *874:28 *875:426 4.24488e-05
152 *874:34 *875:44 4.58897e-06
153 *874:40 *1584:CLK 2.59855e-05
154 *874:44 *1584:CLK 0.000130051
155 *874:44 *884:268 0
156 *874:54 *884:236 1.19576e-05
157 *874:54 *884:245 4.74853e-05
158 *874:54 *884:260 6.84895e-05
159 *874:56 *884:214 3.5094e-05
160 *874:56 *884:223 7.54417e-05
161 *874:56 *884:236 2.32176e-05
162 *874:58 *884:214 6.21224e-05
163 *874:75 *1518:CLK 0
164 *874:81 *893:76 0
165 *874:81 *903:67 0
166 *874:81 *903:69 0
167 *874:83 *1601:CLK 0
168 *874:83 *1633:CLK 0
169 *874:83 *893:76 0
170 *874:83 *903:69 0
171 *874:99 *1633:CLK 1.37421e-05
172 *874:116 *1412:CLK 0
173 *874:140 *1540:CLK 0.000160617
174 *874:140 *894:197 6.08467e-05
175 *874:244 *1312:C 7.5411e-05
176 *874:253 *1312:C 3.79145e-06
177 *874:261 *875:85 8.20706e-05
178 *874:295 *1117:S 0
179 *874:295 *881:111 0
180 *874:295 *890:197 7.68538e-06
181 *874:306 *879:89 7.14746e-05
182 *874:312 *1066:S0 0.00013638
183 *874:312 *879:89 0.000695314
184 *874:320 *1066:S0 0.000153578
185 *874:326 *1635:CLK 1.70219e-05
186 *874:326 *880:51 0.000216293
187 *874:326 *892:92 6.98849e-05
188 *874:328 *892:77 0.000156408
189 *874:328 *892:92 0.000288765
190 *874:334 *892:77 0.000217587
191 *874:338 *875:112 1.64562e-05
192 *874:338 *903:230 2.88865e-05
193 *874:344 *877:170 0.000298828
194 *874:344 *903:230 7.38721e-06
195 *874:348 *877:170 2.18698e-05
196 *874:354 *875:118 9.75744e-05
197 *874:354 *875:120 8.9153e-05
198 *874:362 *1299:C 8.27126e-05
199 *874:362 *875:120 0.000465308
200 *874:362 *875:126 0.000320549
201 *874:451 *1622:CLK 8.43738e-05
202 *874:451 *877:230 0.000407993
203 *874:451 *877:241 0.000302956
204 *874:453 *1310:C 3.64529e-05
205 *874:453 *1622:CLK 0.000155136
206 *874:453 *891:179 4.03301e-05
207 *874:453 *903:268 0
208 *874:459 *1310:C 8.52509e-05
209 *874:459 *891:155 9.3362e-05
210 *874:459 *891:166 3.87022e-06
211 *874:459 *903:268 0
212 *874:461 *1662:CLK 2.05181e-05
213 *874:461 *891:120 0.00022465
214 *874:461 *891:133 0.000324156
215 *874:461 *891:144 0.000366247
216 *874:461 *891:155 5.37077e-05
217 *874:461 *903:268 0
218 *874:467 *1662:CLK 5.92192e-05
219 *874:467 *891:107 5.28937e-05
220 *874:488 *1662:CLK 0
221 *874:488 *891:78 6.23875e-05
222 *874:488 *891:107 2.49771e-05
223 *874:501 *891:107 6.08467e-05
224 *874:535 *1141:S0 0
225 *874:535 *882:107 0
226 *874:583 *876:242 0.000116301
227 *874:583 *876:255 1.05106e-05
228 *874:592 *1531:CLK 3.82228e-05
229 *874:592 *876:242 6.74338e-07
230 *874:592 *876:255 0.000216647
231 *874:594 *1339:C 9.76945e-05
232 *874:594 *891:254 3.95196e-05
233 *874:594 *891:265 0.000108832
234 *874:600 *1339:C 7.14746e-05
235 *874:600 *877:302 0.00070021
236 *874:600 *882:306 0
237 *874:600 *882:320 0
238 *874:600 *891:254 0.000126026
239 *874:633 *891:265 3.70431e-05
240 *874:633 *891:346 2.29838e-05
241 *874:633 *891:357 7.95238e-05
242 *874:633 *891:366 6.34651e-06
243 *874:652 *1341:C 2.23124e-05
244 *874:652 *880:275 0.000424471
245 *874:652 *891:366 0
246 *874:667 *881:433 3.50618e-05
247 *874:744 *1177:C 4.79417e-05
248 *874:744 *876:157 0.00011894
249 *874:752 *876:157 5.92457e-06
250 *874:752 *876:166 7.43728e-05
251 *874:752 *878:174 3.80364e-05
252 *874:752 *878:184 7.15393e-05
253 *874:752 *881:405 8.46399e-05
254 *981:A *874:438 4.89251e-05
255 *981:A *874:451 0.000164257
256 *981:C *874:451 1.01263e-05
257 *991:A *1344:B 2.9178e-05
258 *991:C *1344:B 1.16258e-05
259 *1021:A3 *874:244 8.75727e-05
260 *1030:A3 *1170:B 1.46927e-05
261 *1037:A0 *1171:B 2.20471e-05
262 *1037:A1 *1171:B 0.000357388
263 *1055:A0 *874:28 1.6352e-05
264 *1055:A1 *874:28 0
265 *1061:A1 *874:414 3.79836e-05
266 *1070:A3 *1306:B 0.000276196
267 *1085:A0 *1181:B 5.43993e-06
268 *1090:A2 *874:488 6.50657e-06
269 *1095:A0 *1183:B 0.000175837
270 *1117:A1 *874:295 9.04224e-05
271 *1120:S0 *1188:B 0.000103035
272 *1140:A2 *874:501 0.000148606
273 *1155:A0 *874:81 0
274 *1155:A1 *874:81 4.27003e-05
275 *1155:A2 *874:81 0
276 *1155:A3 *874:81 0.000475033
277 *1155:S1 *1183:B 6.15123e-05
278 *1155:S1 *874:75 0.000297892
279 *1155:S1 *874:81 7.5845e-05
280 *1170:C *1170:B 6.71902e-05
281 *1176:C *874:338 7.26748e-05
282 *1177:A *874:737 5.20546e-06
283 *1180:C *1180:B 1.90867e-06
284 *1182:A *874:501 0.000137345
285 *1185:C *1185:B 0.00021543
286 *1187:C *1187:B 6.73917e-07
287 *1192:C *874:518 8.7264e-05
288 *1208:A *1185:B 1.88563e-05
289 *1240:A *874:354 2.58616e-05
290 *1252:A *1180:B 3.072e-06
291 *1252:C *874:103 9.00257e-05
292 *1264:A *874:54 1.56559e-05
293 *1288:B *874:535 0.000334526
294 *1293:A *1325:B 9.19632e-06
295 *1293:C *1325:B 1.36606e-05
296 *1293:C *874:600 5.0089e-06
297 *1294:A *874:73 9.19886e-06
298 *1307:C *1307:B 3.67841e-05
299 *1312:A *1344:B 5.20546e-06
300 *1312:A *874:253 1.77732e-05
301 *1313:A *874:83 2.15543e-05
302 *1313:C *874:83 0
303 *1316:A *1316:B 3.24105e-05
304 *1316:A *874:116 5.94389e-05
305 *1320:A *1320:B 3.85659e-05
306 *1324:A *874:280 2.84892e-05
307 *1324:A *874:295 9.90059e-05
308 *1336:A *874:354 0.000167929
309 *1337:A *874:326 6.91561e-06
310 *1357:B *874:461 8.98883e-06
311 *1360:A *874:54 6.08467e-05
312 *1384:D *1192:B 5.34249e-06
313 *1384:DE *1192:B 6.89724e-06
314 *1408:D *1344:B 7.92757e-06
315 *1468:D *1180:B 6.08467e-05
316 *1469:D *1181:B 0.000107496
317 *1470:D *874:488 4.67687e-05
318 *1471:D *1183:B 0.000107496
319 *1475:D *1187:B 0.000339397
320 *1480:D *1171:B 5.49029e-06
321 *1483:D *1195:B 6.08467e-05
322 *1485:D *874:488 5.49079e-06
323 *1490:D *1170:B 9.49786e-06
324 *1490:DE *1170:B 3.38494e-05
325 *1496:DE *874:344 0.000190875
326 *1496:DE *874:348 4.7798e-05
327 *1502:D *874:461 6.00336e-05
328 *1520:D *1296:B 5.20546e-06
329 *1520:D *874:34 0.000260674
330 *1520:D *874:40 8.36586e-06
331 *1523:D *1331:B 0.000197414
332 *1528:D *874:354 0.000259225
333 *1531:D *874:592 2.89052e-05
334 *1534:D *874:459 0.000118002
335 *1536:D *874:261 8.70662e-06
336 *1537:D *874:83 2.99273e-05
337 *1537:D *874:99 9.29919e-05
338 *1537:DE *874:99 4.09467e-05
339 *1540:D *874:103 0
340 *1540:DE *874:99 0.000284303
341 *1540:DE *874:103 0
342 *1565:D *1181:B 5.49079e-06
343 *1565:DE *1181:B 7.35086e-06
344 *1576:D *874:518 9.72955e-05
345 *1576:D *874:535 4.95013e-05
346 *1584:D *874:34 0.000335641
347 *1584:D *874:40 0.000158256
348 *1584:D *874:244 3.31424e-05
349 *1584:DE *874:244 3.76187e-05
350 *1587:D *1331:B 6.56022e-05
351 *1587:D *874:362 0.000212216
352 *1590:D *1174:B 0.000314644
353 *1590:D *874:418 3.31882e-05
354 *1592:D *874:354 5.22654e-06
355 *1592:D *874:362 6.14128e-05
356 *1593:D *874:312 6.48653e-05
357 *1593:DE *874:306 6.43474e-05
358 *1593:DE *874:312 0.00049779
359 *1595:D *1307:B 0.000209283
360 *1597:D *874:667 6.61942e-05
361 *1598:D *874:453 0.000124145
362 *1600:D *874:261 0.000272148
363 *1603:D *1315:B 0.000410992
364 *1603:D *874:328 0.000147502
365 *1604:DE *1188:B 4.90829e-05
366 *1604:DE *874:99 0
367 *1619:DE *874:362 0.000606442
368 *1624:D *874:414 3.29197e-05
369 *1624:DE *874:414 2.35126e-05
370 *1626:D *1306:B 6.83542e-05
371 *1627:D *1339:B 0.000213509
372 *1627:D *874:594 9.51287e-05
373 *1627:D *874:633 0.000112595
374 *1629:D *874:652 6.08467e-05
375 *1632:D *1344:B 3.21615e-05
376 *1633:D *874:99 0.000107078
377 *1659:D *874:583 1.83992e-05
378 *1662:D *874:501 7.48797e-05
379 *2262:A *874:28 0.000179875
380 *2270:A *1174:B 0
381 *2270:A *874:418 0
382 *3:13 *874:354 0
383 *3:34 *874:354 4.65768e-05
384 *3:55 *874:344 0.000156386
385 *3:66 *874:338 2.06598e-05
386 *3:66 *874:344 4.68411e-05
387 *3:77 *874:338 0.000113871
388 *8:78 *874:667 0
389 *11:65 *874:261 0.000186568
390 *12:34 *874:58 3.75492e-05
391 *12:36 *1326:B 4.90673e-05
392 *12:36 *874:58 0.000216434
393 *12:40 *1326:B 5.05907e-05
394 *16:47 *1188:B 0
395 *16:69 *874:116 7.64432e-05
396 *22:70 *874:28 0.000278822
397 *25:47 *874:295 9.1278e-05
398 *25:47 *874:306 0.000399736
399 *25:64 *874:295 0.000117426
400 *26:26 *874:40 0.000182885
401 *26:26 *874:44 0.000328893
402 *26:32 *874:44 3.25307e-05
403 *26:32 *874:54 2.09495e-05
404 *26:38 *874:54 8.92561e-05
405 *26:78 *874:40 2.98196e-05
406 *32:73 *1174:B 0
407 *69:183 *1354:B 0.00011768
408 *82:22 *874:261 0
409 *83:57 *1354:B 0.000121221
410 *122:29 *874:28 0.000529468
411 *318:24 *874:461 0
412 *418:50 *874:54 0.000448392
413 *418:50 *874:56 0.000454695
414 *418:50 *874:58 0.000116887
415 *418:194 *1185:B 6.27782e-05
416 *418:194 *874:326 0.000257462
417 *418:194 *874:334 6.55019e-05
418 *418:207 *1185:B 0.000401119
419 *418:215 *874:535 0
420 *423:30 *874:28 0
421 *423:30 *874:34 0
422 *423:55 *1166:B 4.89392e-05
423 *423:146 *874:334 0.000112361
424 *423:157 *1176:B 7.93204e-05
425 *423:157 *874:334 0.000102403
426 *423:251 *1172:B 0.000633398
427 *423:395 *874:583 0.000211539
428 *424:83 *1195:B 1.52239e-05
429 *424:89 *1195:B 1.62739e-05
430 *424:223 *1168:B 1.4091e-06
431 *424:364 *1171:B 7.08532e-05
432 *424:368 *874:518 7.16112e-05
433 *424:368 *874:535 7.6648e-05
434 *424:432 *1185:B 0.000735547
435 *427:155 *874:83 0
436 *427:155 *874:99 0.000154145
437 *427:155 *874:103 0.000136443
438 *427:482 *1306:B 5.04054e-06
439 *427:524 *874:652 0.000404689
440 *427:524 *874:667 6.48865e-05
441 *432:14 *874:600 0
442 *443:12 *874:261 0.000141347
443 *459:18 *874:44 7.14746e-05
444 *459:18 *874:54 3.17456e-05
445 *465:24 *1306:B 7.56672e-05
446 *465:24 *874:752 0.000262597
447 *489:12 *874:633 0.00015373
448 *489:12 *874:652 0.000193108
449 *520:14 *874:295 0
450 *520:14 *874:320 2.83365e-05
451 *541:14 *1352:B 0.000401119
452 *541:16 *874:140 7.78924e-05
453 *856:187 *1325:B 7.60183e-05
454 *856:212 *874:592 6.24474e-06
455 *856:320 *874:312 7.9662e-05
456 *856:333 *1174:B 0
457 *857:39 *874:40 0
458 *857:45 *1326:B 0
459 *857:45 *874:44 0.000114156
460 *857:45 *874:58 0
461 *857:59 *874:81 0
462 *857:96 *1315:B 0.000151436
463 *857:108 *874:354 3.66868e-05
464 *862:70 *1310:B 2.65667e-05
465 *865:102 *1170:B 5.5372e-05
466 *865:289 *874:488 3.37073e-06
467 *865:371 *1174:B 0.00011818
468 *867:16 *1187:B 0
469 *867:20 *874:326 7.42458e-05
470 *867:33 *874:326 0.000382011
471 *867:33 *874:328 0.000157447
472 *867:46 *874:328 5.96909e-05
473 *867:46 *874:334 0.000153472
474 *867:61 *1336:B 3.07848e-05
475 *867:61 *874:348 5.37077e-05
476 *867:61 *874:354 9.59264e-05
477 *867:79 *1320:B 6.09513e-05
478 *867:79 *874:535 4.9e-05
479 *868:71 *1188:B 0
480 *868:77 *1188:B 0
481 *868:177 *1195:B 0.000572588
482 *871:46 *1344:B 8.31206e-05
483 *871:65 *1344:B 6.64392e-05
*RES
1 *2278:X *1354:B 31.0235 
2 *2278:X *874:28 37.2065 
3 *874:28 *874:34 7.71881 
4 *874:34 *874:40 6.47305 
5 *874:40 *874:44 12.5608 
6 *874:44 *874:54 19.4497 
7 *874:54 *874:56 8.06078 
8 *874:56 *874:58 13.4591 
9 *874:58 *1326:B 19.3184 
10 *874:58 *874:69 4.5 
11 *874:69 *874:73 17.4247 
12 *874:73 *874:75 11.798 
13 *874:75 *874:81 23.2297 
14 *874:81 *874:83 5.56926 
15 *874:83 *874:99 38.1616 
16 *874:99 *874:103 8.82351 
17 *874:103 *1316:B 11.6605 
18 *874:103 *874:116 7.95736 
19 *874:116 *1188:B 30.3609 
20 *874:116 *1348:B 9.24915 
21 *874:99 *874:140 11.3872 
22 *874:140 *1180:B 35.986 
23 *874:140 *1170:B 36.6855 
24 *874:83 *1345:B 13.7491 
25 *874:81 *1313:B 14.4725 
26 *874:75 *1195:B 25.5887 
27 *874:73 *1183:B 23.3006 
28 *874:69 *1294:B 9.97254 
29 *874:56 *1166:B 15.0271 
30 *874:54 *1172:B 35.5475 
31 *874:44 *1168:B 9.97254 
32 *874:40 *874:244 30.3735 
33 *874:244 *1312:B 9.82786 
34 *874:244 *874:253 1.8326 
35 *874:253 *874:261 19.8399 
36 *874:261 *1187:B 29.39 
37 *874:261 *874:280 24.0799 
38 *874:280 *1324:B 9.24915 
39 *874:280 *874:295 21.6986 
40 *874:295 *1356:B 9.24915 
41 *874:295 *874:306 10.5224 
42 *874:306 *874:312 21.3189 
43 *874:312 *874:320 14.4678 
44 *874:320 *874:326 36.2932 
45 *874:326 *874:328 8.47603 
46 *874:328 *874:334 14.9508 
47 *874:334 *874:338 8.82351 
48 *874:338 *874:344 16.1704 
49 *874:344 *874:348 6.74725 
50 *874:348 *874:354 14.9536 
51 *874:354 *874:362 27.165 
52 *874:362 *1299:B 9.97254 
53 *874:362 *1331:B 28.3624 
54 *874:354 *1304:B 13.7491 
55 *874:348 *1336:B 11.8534 
56 *874:344 *874:414 37.5833 
57 *874:414 *874:418 9.65401 
58 *874:418 *1302:B 13.7491 
59 *874:418 *1174:B 35.1302 
60 *874:414 *874:438 7.93324 
61 *874:438 *1334:B 9.82786 
62 *874:438 *874:451 18.6993 
63 *874:451 *874:453 10.5523 
64 *874:453 *874:459 9.52637 
65 *874:459 *874:461 18.0268 
66 *874:461 *874:467 7.8887 
67 *874:467 *1182:B 9.24915 
68 *874:467 *874:488 49.4559 
69 *874:488 *1165:B 9.24915 
70 *874:461 *874:501 25.2374 
71 *874:501 *1192:B 23.1623 
72 *874:501 *874:518 11.315 
73 *874:518 *1171:B 44.855 
74 *874:518 *874:535 12.2133 
75 *874:535 *1352:B 18.3548 
76 *874:535 *1320:B 19.2169 
77 *874:459 *1342:B 14.4725 
78 *874:453 *1310:B 14.4725 
79 *874:451 *874:583 24.5622 
80 *874:583 *1179:B 9.24915 
81 *874:583 *874:592 25.7437 
82 *874:592 *874:594 5.56926 
83 *874:594 *874:600 25.3377 
84 *874:600 *1325:B 24.8261 
85 *874:600 *1293:B 9.24915 
86 *874:594 *1339:B 18.3548 
87 *874:592 *874:633 9.94163 
88 *874:633 *1307:B 17.8243 
89 *874:633 *874:652 17.7395 
90 *874:652 *1341:B 9.97254 
91 *874:652 *874:667 12.8039 
92 *874:667 *1181:B 35.7013 
93 *874:667 *1309:B 9.24915 
94 *874:338 *1185:B 37.6694 
95 *874:334 *1176:B 11.6364 
96 *874:328 *1315:B 20.0427 
97 *874:326 *1347:B 13.7491 
98 *874:320 *1337:B 9.24915 
99 *874:312 *1305:B 9.24915 
100 *874:306 *874:737 24.6345 
101 *874:737 *1177:B 9.24915 
102 *874:737 *874:744 24.0167 
103 *874:744 *874:752 23.1574 
104 *874:752 *1306:B 26.4155 
105 *874:752 *1338:B 13.7491 
106 *874:744 *1178:B 9.24915 
107 *874:253 *1344:B 25.9648 
108 *874:34 *1328:B 13.7491 
109 *874:28 *1296:B 14.4725 
*END

*D_NET *875 0.0732023
*CONN
*I *956:B I *D sky130_fd_sc_hd__nand2_1
*I *1322:C I *D sky130_fd_sc_hd__and3_1
*I *1258:C I *D sky130_fd_sc_hd__and3_1
*I *1296:C I *D sky130_fd_sc_hd__and3_1
*I *1317:C I *D sky130_fd_sc_hd__and3_1
*I *1253:C I *D sky130_fd_sc_hd__and3_1
*I *1312:C I *D sky130_fd_sc_hd__and3_1
*I *1305:C I *D sky130_fd_sc_hd__and3_1
*I *1241:C I *D sky130_fd_sc_hd__and3_1
*I *1260:C I *D sky130_fd_sc_hd__and3_1
*I *1324:C I *D sky130_fd_sc_hd__and3_1
*I *1248:C I *D sky130_fd_sc_hd__and3_1
*I *1251:C I *D sky130_fd_sc_hd__and3_1
*I *1294:C I *D sky130_fd_sc_hd__and3_1
*I *1230:C I *D sky130_fd_sc_hd__and3_1
*I *1240:C I *D sky130_fd_sc_hd__and3_1
*I *1304:C I *D sky130_fd_sc_hd__and3_1
*I *1310:C I *D sky130_fd_sc_hd__and3_1
*I *1246:C I *D sky130_fd_sc_hd__and3_1
*I *1320:C I *D sky130_fd_sc_hd__and3_1
*I *1302:C I *D sky130_fd_sc_hd__and3_1
*I *1238:C I *D sky130_fd_sc_hd__and3_1
*I *1256:C I *D sky130_fd_sc_hd__and3_1
*I *1235:C I *D sky130_fd_sc_hd__and3_1
*I *1299:C I *D sky130_fd_sc_hd__and3_1
*I *1315:C I *D sky130_fd_sc_hd__and3_1
*I *1232:C I *D sky130_fd_sc_hd__and3_1
*I *2279:X O *D sky130_fd_sc_hd__buf_16
*CAP
1 *956:B 0
2 *1322:C 0
3 *1258:C 0.000464676
4 *1296:C 0
5 *1317:C 0.000649389
6 *1253:C 2.05465e-05
7 *1312:C 0.000101269
8 *1305:C 5.85652e-05
9 *1241:C 0.000303442
10 *1260:C 0
11 *1324:C 0
12 *1248:C 0
13 *1251:C 1.49482e-05
14 *1294:C 0.00039805
15 *1230:C 0.00018926
16 *1240:C 0
17 *1304:C 1.67289e-05
18 *1310:C 0.000206613
19 *1246:C 1.37428e-05
20 *1320:C 0
21 *1302:C 0.000277408
22 *1238:C 0
23 *1256:C 0
24 *1235:C 0.000521691
25 *1299:C 0.00015429
26 *1315:C 2.04386e-05
27 *1232:C 0.00018912
28 *2279:X 0.00063248
29 *875:426 0.00102356
30 *875:397 0.00310503
31 *875:354 0.0011295
32 *875:343 0.00106533
33 *875:330 0.00164453
34 *875:315 0.00146705
35 *875:274 0.00150099
36 *875:230 0.00142237
37 *875:211 0.00143864
38 *875:189 0.000782373
39 *875:173 0.00098398
40 *875:166 0.00153686
41 *875:126 0.0010161
42 *875:120 0.00188225
43 *875:118 0.000472517
44 *875:112 0.00132837
45 *875:95 0.00124152
46 *875:91 0.00155111
47 *875:85 0.00147841
48 *875:75 0.00129846
49 *875:69 0.000425118
50 *875:67 0.00314649
51 *875:52 0.00121361
52 *875:44 0.00140711
53 *875:34 0.00267268
54 *875:20 0.00172487
55 *1235:C *893:255 0.000139236
56 *1241:C *1337:C 0
57 *1241:C *890:141 0
58 *1294:C *877:44 0.000140071
59 *1305:C *881:309 0.000244118
60 *1305:C *890:137 0.000161252
61 *1310:C *1406:CLK 2.33246e-05
62 *1310:C *891:166 0.000164842
63 *1310:C *891:179 0.000238297
64 *1317:C *1605:CLK 0
65 *1317:C *887:24 0
66 *875:20 *878:30 5.01109e-05
67 *875:20 *880:12 0
68 *875:20 *881:8 3.27973e-05
69 *875:34 *1150:S0 0.00021793
70 *875:34 *1418:CLK 7.04127e-05
71 *875:34 *883:6 0.000196862
72 *875:34 *906:10 0.000269072
73 *875:34 *906:37 8.09625e-05
74 *875:44 *879:30 0
75 *875:44 *906:10 0
76 *875:67 *1328:C 0.00049014
77 *875:67 *2281:A 0.000210531
78 *875:67 *877:6 0.000608259
79 *875:67 *887:119 0.00129754
80 *875:69 *887:93 0.000131673
81 *875:75 *887:93 0.000267756
82 *875:85 *1379:CLK 0
83 *875:85 *1571:CLK 0.000663316
84 *875:85 *887:93 0
85 *875:112 *903:230 0
86 *875:166 *1592:CLK 8.62625e-06
87 *875:173 *1608:CLK 4.95311e-05
88 *875:173 *892:149 7.89747e-05
89 *875:189 *892:137 2.14021e-05
90 *875:189 *892:139 9.34724e-05
91 *875:189 *892:143 6.1351e-05
92 *875:211 *1608:CLK 1.92172e-05
93 *875:230 *1406:CLK 3.75221e-05
94 *875:230 *880:207 4.97617e-05
95 *875:274 *1390:CLK 0.000216467
96 *875:330 *1344:C 7.67134e-05
97 *875:330 *881:111 0.000479757
98 *875:354 *889:91 0.000113436
99 *875:354 *890:170 0
100 *875:354 *890:197 0
101 *875:397 *887:81 0
102 *875:397 *887:91 0.000127908
103 *875:397 *887:93 1.72347e-05
104 *947:A *875:20 0.000302605
105 *947:B *875:20 5.56367e-05
106 *952:A *1258:C 1.88152e-05
107 *952:B *1258:C 0.000165766
108 *954:B *1258:C 3.44818e-05
109 *973:A *1230:C 2.48457e-05
110 *973:C *1230:C 0.000352809
111 *973:C *875:274 8.71746e-05
112 *996:A *875:397 0
113 *999:A *875:189 0.000119367
114 *1011:A0 *875:274 1.85511e-05
115 *1022:A0 *875:69 5.48778e-05
116 *1022:A0 *875:75 6.19465e-05
117 *1022:A0 *875:397 7.60673e-05
118 *1061:A3 *875:166 1.94236e-05
119 *1102:A1 *1317:C 0.000352644
120 *1102:A1 *875:397 0.000268575
121 *1141:A1 *875:230 6.36477e-05
122 *1141:A2 *875:230 6.46815e-05
123 *1187:B *875:85 0.00032341
124 *1240:A *875:118 6.27718e-05
125 *1246:B *875:230 1.00901e-05
126 *1248:A *875:315 0.000127152
127 *1248:A *875:330 9.85384e-05
128 *1248:B *875:330 2.52287e-06
129 *1251:A *875:91 6.50586e-05
130 *1253:A *1253:C 8.83451e-06
131 *1256:A *875:166 0.000110529
132 *1256:A *875:173 5.76339e-05
133 *1256:A *875:211 3.99086e-06
134 *1258:A *1258:C 0.00011841
135 *1260:A *875:343 4.07851e-06
136 *1294:B *1294:C 4.28856e-07
137 *1296:A *875:52 8.92615e-05
138 *1299:B *1299:C 2.60273e-06
139 *1304:A *1304:C 6.89596e-05
140 *1312:A *1312:C 0.000100535
141 *1315:B *875:112 2.37827e-05
142 *1320:A *875:211 7.90116e-05
143 *1320:A *875:230 0.000129609
144 *1320:B *875:230 2.89405e-05
145 *1322:A *1258:C 3.04234e-05
146 *1322:A *875:426 0.000520007
147 *1324:A *875:330 8.19299e-05
148 *1324:A *875:343 0.000223773
149 *1326:B *1294:C 0.000198186
150 *1336:A *875:112 0.000103737
151 *1336:A *875:118 5.72048e-05
152 *1344:A *875:330 0.000265537
153 *1354:B *875:426 3.82228e-05
154 *1379:D *875:85 0.000472721
155 *1390:D *875:274 0.000169842
156 *1390:DE *875:274 3.42041e-05
157 *1496:DE *1304:C 6.89596e-05
158 *1518:D *1294:C 0
159 *1520:D *875:44 9.43124e-05
160 *1520:D *875:52 7.40302e-05
161 *1523:DE *1235:C 0.000235864
162 *1528:D *875:118 3.99086e-06
163 *1528:D *875:120 0
164 *1529:D *1241:C 0.000113717
165 *1534:D *1310:C 0.00012136
166 *1536:DE *875:67 2.57365e-05
167 *1539:D *1251:C 1.69591e-06
168 *1539:D *875:91 0.000212455
169 *1548:D *875:354 0.000139817
170 *1584:D *875:44 9.15192e-05
171 *1587:D *1235:C 0.000445214
172 *1587:DE *875:166 5.56846e-05
173 *1593:D *1241:C 2.3339e-05
174 *1593:D *875:354 3.81481e-05
175 *1593:DE *875:354 8.39925e-05
176 *1603:D *875:112 7.98425e-06
177 *1612:D *875:330 2.9316e-05
178 *1616:D *875:44 0
179 *1625:D *1241:C 3.9739e-05
180 *1640:D *875:189 0.000145547
181 *1640:D *875:211 0.000363154
182 *1644:DE *875:330 0.000491352
183 *1647:DE *875:20 0.000222609
184 *1647:DE *875:34 1.41689e-05
185 *2270:A *875:189 8.83849e-05
186 *3:34 *875:112 5.46384e-06
187 *3:55 *875:112 0.00040555
188 *3:66 *875:112 2.06756e-05
189 *3:77 *875:112 3.53606e-05
190 *12:48 *1230:C 5.03545e-06
191 *12:48 *1294:C 0
192 *15:56 *875:85 0.000458889
193 *15:67 *875:85 4.86266e-05
194 *15:82 *875:85 0.000219953
195 *17:45 *1317:C 0.000115451
196 *17:51 *1317:C 6.50727e-05
197 *22:70 *875:44 0.000280321
198 *25:47 *875:354 0
199 *25:64 *875:343 4.66889e-05
200 *26:22 *1232:C 0.000296703
201 *26:22 *875:67 6.08467e-05
202 *26:26 *875:52 2.86829e-05
203 *26:78 *875:52 0.000235351
204 *29:71 *1235:C 0.000353066
205 *32:22 *1302:C 0.00036916
206 *32:22 *875:189 2.23105e-05
207 *32:31 *1302:C 0.000110116
208 *68:77 *1258:C 4.60658e-05
209 *69:183 *1258:C 3.04234e-05
210 *69:183 *875:426 0.000866672
211 *122:29 *875:34 5.86405e-05
212 *122:29 *875:44 1.18423e-05
213 *123:122 *1258:C 0.000104946
214 *128:16 *875:20 5.07314e-05
215 *128:20 *875:34 7.77452e-05
216 *362:14 *875:426 6.24474e-06
217 *417:67 *875:426 3.40176e-05
218 *417:328 *1317:C 2.60827e-05
219 *418:215 *875:189 0.000102982
220 *418:215 *875:211 0.0003696
221 *421:75 *875:44 0
222 *422:16 *875:20 9.25708e-05
223 *422:16 *875:34 6.23875e-05
224 *423:30 *875:52 0
225 *424:35 *1258:C 0.00015409
226 *427:265 *875:20 7.20028e-05
227 *443:12 *875:75 0
228 *443:12 *875:85 0.000379332
229 *823:12 *875:20 0.000426509
230 *856:8 *875:20 0
231 *856:18 *875:67 9.81288e-06
232 *856:22 *875:67 0.000201727
233 *856:128 *875:91 0.000368547
234 *856:130 *875:91 0.000143641
235 *856:130 *875:95 0.000241703
236 *856:149 *875:166 0.000134721
237 *856:308 *875:354 3.92805e-05
238 *856:320 *1241:C 0.0002204
239 *856:320 *875:354 0.000791123
240 *857:27 *875:34 0.000145943
241 *857:27 *875:44 0
242 *857:45 *1294:C 0
243 *857:96 *1315:C 4.46209e-05
244 *857:96 *875:112 0.000319954
245 *857:108 *875:118 8.51791e-05
246 *857:108 *875:120 0.000167665
247 *857:175 *875:189 0.000466151
248 *858:16 *875:397 8.6538e-05
249 *858:24 *875:91 0.000124137
250 *858:47 *875:120 0
251 *859:50 *875:189 0.000255298
252 *860:70 *1241:C 0.000252598
253 *860:82 *875:274 0.000337134
254 *862:70 *1310:C 3.07828e-05
255 *863:45 *875:330 0.000312844
256 *865:220 *1235:C 4.52039e-05
257 *865:346 *875:91 0.000254854
258 *865:346 *875:95 0.000100314
259 *865:350 *875:112 0.000559672
260 *867:46 *875:112 0.000209194
261 *867:50 *875:112 0.000356929
262 *867:67 *875:166 0.000349535
263 *871:65 *875:330 3.70145e-05
264 *871:84 *875:343 1.73515e-07
265 *871:84 *875:354 5.17016e-06
266 *872:10 *875:34 0.000124942
267 *874:28 *875:44 0.000394198
268 *874:28 *875:426 4.24488e-05
269 *874:34 *875:44 4.58897e-06
270 *874:244 *1312:C 7.5411e-05
271 *874:253 *1312:C 3.79145e-06
272 *874:261 *875:85 8.20706e-05
273 *874:338 *875:112 1.64562e-05
274 *874:354 *875:118 9.75744e-05
275 *874:354 *875:120 8.9153e-05
276 *874:362 *1299:C 8.27126e-05
277 *874:362 *875:120 0.000465308
278 *874:362 *875:126 0.000320549
279 *874:453 *1310:C 3.64529e-05
280 *874:459 *1310:C 8.52509e-05
*RES
1 *2279:X *875:20 38.6368 
2 *875:20 *875:34 43.2584 
3 *875:34 *875:44 31.6112 
4 *875:44 *875:52 17.8044 
5 *875:52 *1232:C 12.5888 
6 *875:52 *875:67 29.2643 
7 *875:67 *875:69 2.6625 
8 *875:69 *875:75 11.0714 
9 *875:75 *875:85 44.5407 
10 *875:85 *875:91 21.7314 
11 *875:91 *875:95 8.82351 
12 *875:95 *1315:C 9.77964 
13 *875:95 *875:112 44.7226 
14 *875:112 *875:118 8.81565 
15 *875:118 *875:120 9.72179 
16 *875:120 *875:126 13.5685 
17 *875:126 *1299:C 13.1073 
18 *875:126 *1235:C 35.5663 
19 *875:120 *875:166 43.0005 
20 *875:166 *1256:C 9.24915 
21 *875:166 *875:173 6.07653 
22 *875:173 *875:189 36.4981 
23 *875:189 *1238:C 9.24915 
24 *875:189 *1302:C 14.4094 
25 *875:173 *875:211 18.0093 
26 *875:211 *1320:C 9.24915 
27 *875:211 *875:230 25.2345 
28 *875:230 *1246:C 9.6229 
29 *875:230 *1310:C 26.7454 
30 *875:118 *1304:C 14.569 
31 *875:112 *1240:C 9.24915 
32 *875:91 *875:274 29.2643 
33 *875:274 *1230:C 23.9462 
34 *875:274 *1294:C 27.8209 
35 *875:85 *1251:C 9.51439 
36 *875:75 *875:315 1.98934 
37 *875:315 *1248:C 9.24915 
38 *875:315 *875:330 36.7063 
39 *875:330 *1324:C 9.24915 
40 *875:330 *875:343 6.48645 
41 *875:343 *1260:C 9.24915 
42 *875:343 *875:354 27.9066 
43 *875:354 *1241:C 23.3131 
44 *875:354 *1305:C 16.4981 
45 *875:69 *1312:C 16.9803 
46 *875:67 *875:397 49.5592 
47 *875:397 *1253:C 14.0445 
48 *875:397 *1317:C 26.9301 
49 *875:44 *1296:C 9.24915 
50 *875:34 *875:426 21.6686 
51 *875:426 *1258:C 37.8067 
52 *875:426 *1322:C 9.24915 
53 *875:20 *956:B 9.24915 
*END

*D_NET *876 0.072071
*CONN
*I *1190:C I *D sky130_fd_sc_hd__and3_1
*I *1265:C I *D sky130_fd_sc_hd__and3_1
*I *1287:C I *D sky130_fd_sc_hd__and3_1
*I *1191:C I *D sky130_fd_sc_hd__and3_1
*I *1269:C I *D sky130_fd_sc_hd__and3_1
*I *1173:C I *D sky130_fd_sc_hd__and3_1
*I *1169:C I *D sky130_fd_sc_hd__and3_1
*I *1286:C I *D sky130_fd_sc_hd__and3_1
*I *1285:C I *D sky130_fd_sc_hd__and3_1
*I *1196:C I *D sky130_fd_sc_hd__and3_1
*I *1292:C I *D sky130_fd_sc_hd__and3_1
*I *1186:C I *D sky130_fd_sc_hd__and3_1
*I *1282:C I *D sky130_fd_sc_hd__and3_1
*I *1274:C I *D sky130_fd_sc_hd__and3_1
*I *1275:C I *D sky130_fd_sc_hd__and3_1
*I *1165:C I *D sky130_fd_sc_hd__and3_1
*I *1261:C I *D sky130_fd_sc_hd__and3_1
*I *1179:C I *D sky130_fd_sc_hd__and3_1
*I *1277:C I *D sky130_fd_sc_hd__and3_1
*I *1181:C I *D sky130_fd_sc_hd__and3_1
*I *1270:C I *D sky130_fd_sc_hd__and3_1
*I *1174:C I *D sky130_fd_sc_hd__and3_1
*I *1178:C I *D sky130_fd_sc_hd__and3_1
*I *1177:C I *D sky130_fd_sc_hd__and3_1
*I *1273:C I *D sky130_fd_sc_hd__and3_1
*I *1189:C I *D sky130_fd_sc_hd__and3_1
*I *1289:C I *D sky130_fd_sc_hd__and3_1
*I *1193:C I *D sky130_fd_sc_hd__and3_1
*I *1263:C I *D sky130_fd_sc_hd__and3_1
*I *1167:C I *D sky130_fd_sc_hd__and3_1
*I *1184:C I *D sky130_fd_sc_hd__and3_1
*I *1280:C I *D sky130_fd_sc_hd__and3_1
*I *2280:X O *D sky130_fd_sc_hd__buf_16
*CAP
1 *1190:C 0.000239151
2 *1265:C 0.000606131
3 *1287:C 0.0004321
4 *1191:C 0
5 *1269:C 0.000203637
6 *1173:C 0.000166467
7 *1169:C 0
8 *1286:C 0
9 *1285:C 0.000344075
10 *1196:C 1.84499e-05
11 *1292:C 1.31436e-05
12 *1186:C 0.000648688
13 *1282:C 0.000117347
14 *1274:C 0
15 *1275:C 0.000185144
16 *1165:C 0.000465403
17 *1261:C 1.60812e-05
18 *1179:C 0
19 *1277:C 0
20 *1181:C 0.000112742
21 *1270:C 0
22 *1174:C 0.000834095
23 *1178:C 0
24 *1177:C 0.000202284
25 *1273:C 5.93881e-05
26 *1189:C 0.000448731
27 *1289:C 1.73114e-05
28 *1193:C 1.37063e-05
29 *1263:C 0
30 *1167:C 3.90496e-05
31 *1184:C 0.000292244
32 *1280:C 0.000417094
33 *2280:X 0.00171972
34 *876:414 0.00162943
35 *876:410 0.00213759
36 *876:376 0.000627112
37 *876:368 0.000782988
38 *876:357 0.0014138
39 *876:350 0.00137269
40 *876:301 0.0012455
41 *876:261 0.00142048
42 *876:255 0.00152208
43 *876:242 0.0011804
44 *876:196 0.00194397
45 *876:190 0.00150526
46 *876:188 0.000344105
47 *876:186 0.00198492
48 *876:172 0.00174314
49 *876:166 0.00140178
50 *876:157 0.00168268
51 *876:146 0.00156479
52 *876:133 0.000343389
53 *876:131 0.00072836
54 *876:125 0.00120672
55 *876:121 0.0014409
56 *876:106 0.00126371
57 *876:104 0.00106299
58 *876:102 0.00168444
59 *876:81 0.00149272
60 *876:62 0.00182299
61 *876:45 0.00138893
62 *876:12 0.0010419
63 *876:10 0.00042708
64 *876:6 0.00182199
65 *1165:C *891:62 0
66 *1174:C *1050:S0 0
67 *1174:C *1050:S1 0
68 *1174:C *890:89 0
69 *1189:C *1509:CLK 5.92342e-05
70 *1190:C *997:B 9.75356e-05
71 *1190:C *888:165 8.12592e-05
72 *1190:C *888:167 2.71542e-05
73 *1193:C *1145:S0 2.05789e-05
74 *1265:C *2292:A 0
75 *1273:C *905:22 7.86847e-05
76 *1280:C *880:29 0.000181617
77 *1287:C *1479:DE 0.000363555
78 *1287:C *888:40 4.31703e-05
79 *1289:C *906:64 5.52936e-06
80 *876:6 *880:21 6.42019e-05
81 *876:12 *880:29 5.71739e-05
82 *876:45 *880:320 7.68538e-06
83 *876:45 *887:272 1.4174e-05
84 *876:62 *1145:S0 0.000167558
85 *876:62 *887:272 0.000499403
86 *876:81 *1145:S0 1.20742e-05
87 *876:81 *887:248 0.000282881
88 *876:81 *906:64 1.18914e-05
89 *876:102 *906:64 5.97973e-06
90 *876:104 *1478:DE 4.33979e-05
91 *876:104 *1510:CLK 4.66519e-05
92 *876:104 *888:167 9.15703e-05
93 *876:104 *906:72 0.000196928
94 *876:106 *1478:DE 0.000101148
95 *876:125 *881:57 8.20492e-06
96 *876:125 *881:379 1.83828e-05
97 *876:125 *905:12 0.000199031
98 *876:131 *905:12 2.51064e-05
99 *876:131 *905:22 0.000478502
100 *876:133 *905:22 0.000652938
101 *876:172 *1562:CLK 0
102 *876:172 *881:405 0
103 *876:172 *881:417 0
104 *876:186 *1085:S0 0.000118989
105 *876:186 *905:53 0
106 *876:242 *881:259 0
107 *876:261 *1075:S1 0.000179509
108 *876:261 *1325:C 7.14746e-05
109 *876:261 *891:62 9.92077e-05
110 *876:301 *881:405 0
111 *876:350 *906:87 4.36367e-05
112 *876:357 *905:10 0.000260263
113 *876:357 *906:87 0.000144968
114 *964:B *876:121 1.43848e-05
115 *972:C *1165:C 3.67528e-06
116 *997:A *1190:C 0.000305009
117 *1015:A0 *876:62 7.50722e-05
118 *1025:A0 *1265:C 0.000567967
119 *1025:A1 *1265:C 9.08174e-05
120 *1025:A1 *876:376 0.000149643
121 *1025:A1 *876:410 8.94467e-05
122 *1025:A2 *876:414 0.000175085
123 *1025:A3 *1265:C 0
124 *1027:A0 *876:414 2.58616e-05
125 *1027:A1 *876:410 0
126 *1027:A1 *876:414 8.86714e-05
127 *1050:A1 *1174:C 0
128 *1050:A2 *1174:C 0.000178209
129 *1052:A0 *876:196 0.000264502
130 *1075:A1 *876:261 0
131 *1075:A3 *1275:C 0.000215611
132 *1075:A3 *876:261 0.000394403
133 *1127:A0 *876:125 1.74551e-05
134 *1152:A0 *876:6 0.000254493
135 *1162:A1 *1196:C 7.93303e-06
136 *1169:A *876:357 0.000319801
137 *1169:B *876:357 1.73447e-06
138 *1169:B *876:368 5.04576e-05
139 *1169:B *876:410 5.20546e-06
140 *1179:A *876:242 4.49959e-05
141 *1181:B *1181:C 7.58289e-06
142 *1191:B *876:414 7.89102e-06
143 *1193:A *876:81 7.55502e-05
144 *1196:A *876:131 0.000314021
145 *1199:B *876:6 9.14505e-05
146 *1211:B *876:186 0
147 *1211:B *876:242 0.000237668
148 *1222:B *876:102 7.21473e-05
149 *1263:A *876:6 0.000107496
150 *1269:B *1269:C 1.24194e-05
151 *1270:B *1174:C 6.83031e-06
152 *1270:B *876:196 2.67357e-05
153 *1274:A *876:172 0.000143269
154 *1274:A *876:186 0.000108754
155 *1274:B *876:172 0.000237494
156 *1274:B *876:186 0
157 *1277:A *876:186 0.000157107
158 *1277:A *876:188 0.000102345
159 *1277:A *876:190 0.000117534
160 *1277:B *876:186 9.40191e-05
161 *1277:B *876:242 8.29571e-05
162 *1282:B *1186:C 3.89287e-05
163 *1282:B *1282:C 3.48257e-05
164 *1282:B *876:172 0.000110577
165 *1282:B *876:301 0.000276577
166 *1285:A *1285:C 6.08467e-05
167 *1285:B *876:104 0
168 *1285:B *876:121 1.00981e-05
169 *1286:A *876:350 0.000113968
170 *1287:B *1287:C 6.05669e-05
171 *1289:B *876:81 0.000102527
172 *1289:B *876:102 0.000125096
173 *1293:A *876:261 5.70863e-05
174 *1325:B *876:261 2.8322e-05
175 *1361:A *876:357 7.02172e-06
176 *1381:D *876:125 0.000116215
177 *1453:D *1165:C 0.000115735
178 *1455:D *876:10 3.25751e-05
179 *1455:D *876:12 1.82696e-05
180 *1457:D *876:368 6.50586e-05
181 *1467:D *876:255 6.41754e-05
182 *1474:D *1186:C 0.00020975
183 *1477:D *1189:C 0
184 *1477:D *876:106 0
185 *1478:D *1190:C 1.11594e-05
186 *1478:D *876:106 5.68225e-06
187 *1479:D *1287:C 0.000116502
188 *1481:D *1193:C 5.26964e-06
189 *1481:D *876:62 1.80673e-05
190 *1484:D *876:131 6.53429e-05
191 *1489:DE *1265:C 0
192 *1498:DE *1273:C 1.15492e-05
193 *1499:D *876:242 0.000149628
194 *1499:DE *1181:C 0.000292801
195 *1509:D *876:125 0.000145532
196 *1510:D *876:102 0.000415487
197 *1510:D *876:104 7.44044e-06
198 *1553:D *1265:C 4.15904e-05
199 *1553:DE *1265:C 0
200 *1557:D *1173:C 0
201 *1562:D *876:172 6.50586e-05
202 *1563:DE *876:186 1.66626e-05
203 *1565:D *876:186 3.92963e-05
204 *1570:D *1282:C 0.000160139
205 *1570:D *876:301 0.000115755
206 *1577:D *876:81 0.000126729
207 *1580:D *876:133 5.6562e-05
208 *1580:DE *876:133 4.70406e-05
209 *1613:D *876:261 7.06545e-05
210 *1659:D *876:242 0
211 *1:55 *1261:C 2.23105e-05
212 *1:59 *876:261 0
213 *1:68 *876:261 0
214 *6:59 *1275:C 2.23105e-05
215 *11:17 *876:12 0
216 *11:23 *1280:C 0
217 *11:23 *876:12 0
218 *11:36 *1280:C 0.000124876
219 *11:38 *1280:C 0.000112361
220 *14:55 *1186:C 0
221 *17:31 *1285:C 0.000352405
222 *17:31 *876:121 6.08467e-05
223 *17:31 *876:125 7.14746e-05
224 *17:33 *876:121 2.11328e-05
225 *17:41 *1189:C 0.000661569
226 *21:37 *876:81 1.03594e-05
227 *21:41 *876:81 0.000400178
228 *31:47 *1173:C 2.23105e-05
229 *32:73 *1174:C 0.000103157
230 *121:112 *876:125 4.03125e-05
231 *121:137 *876:131 7.85196e-05
232 *124:83 *876:125 7.02443e-05
233 *124:89 *876:125 0.000124407
234 *124:100 *876:131 0
235 *124:123 *1273:C 2.652e-05
236 *124:123 *876:133 0.00015531
237 *124:133 *876:186 0.000657484
238 *124:242 *1287:C 0.000287751
239 *417:307 *876:10 0.000116439
240 *417:307 *876:12 8.88627e-05
241 *417:313 *1184:C 2.05014e-05
242 *417:313 *876:12 0.000439903
243 *417:322 *1184:C 5.99499e-07
244 *417:351 *1189:C 2.18041e-06
245 *417:426 *1173:C 0.00012998
246 *417:444 *1173:C 0.000144659
247 *417:444 *876:376 0.00052612
248 *417:444 *876:410 9.72667e-05
249 *417:461 *876:410 0.000100739
250 *417:461 *876:414 3.45649e-05
251 *418:326 *876:6 2.81262e-05
252 *418:326 *876:45 5.04829e-06
253 *418:383 *1190:C 4.58666e-05
254 *418:383 *876:104 7.47357e-05
255 *418:396 *876:102 1.40978e-05
256 *418:418 *876:121 5.73392e-05
257 *418:431 *1285:C 4.0752e-05
258 *418:537 *1186:C 0.000129415
259 *423:315 *876:6 6.29347e-05
260 *423:362 *1189:C 3.46062e-05
261 *423:362 *876:104 2.46823e-05
262 *423:362 *876:106 0.000361883
263 *423:364 *1189:C 8.18934e-05
264 *423:377 *1292:C 7.93303e-06
265 *423:395 *1181:C 0.000289203
266 *423:462 *876:357 0.000195347
267 *427:472 *1186:C 0
268 *427:472 *876:301 0
269 *427:536 *1275:C 0
270 *427:536 *876:261 0
271 *441:10 *876:62 2.652e-05
272 *479:12 *876:186 5.25402e-05
273 *529:10 *876:125 0.000296728
274 *529:10 *876:131 1.07549e-05
275 *856:187 *876:261 0.000102591
276 *858:379 *876:104 0.000307407
277 *858:406 *876:376 0.000113497
278 *858:431 *876:125 0.000236507
279 *858:441 *876:125 3.55694e-05
280 *858:497 *876:261 0
281 *863:16 *1280:C 2.27677e-05
282 *865:289 *1165:C 2.70766e-05
283 *865:371 *1174:C 0.000387133
284 *866:63 *876:242 0.000332396
285 *870:56 *1287:C 7.88662e-05
286 *870:62 *1287:C 0.000189618
287 *872:86 *876:104 0
288 *874:583 *876:242 0.000116301
289 *874:583 *876:255 1.05106e-05
290 *874:592 *876:242 6.74338e-07
291 *874:592 *876:255 0.000216647
292 *874:744 *1177:C 4.79417e-05
293 *874:744 *876:157 0.00011894
294 *874:752 *876:157 5.92457e-06
295 *874:752 *876:166 7.43728e-05
*RES
1 *2280:X *876:6 35.4843 
2 *876:6 *876:10 6.74725 
3 *876:10 *876:12 11.3828 
4 *876:12 *1280:C 24.2936 
5 *876:12 *1184:C 17.8966 
6 *876:10 *1167:C 14.569 
7 *876:6 *876:45 0.880132 
8 *876:45 *1263:C 9.24915 
9 *876:45 *876:62 31.7931 
10 *876:62 *1193:C 9.97254 
11 *876:62 *876:81 24.1289 
12 *876:81 *1289:C 9.83389 
13 *876:81 *876:102 38.5041 
14 *876:102 *876:104 13.8743 
15 *876:104 *876:106 14.7048 
16 *876:106 *1189:C 24.8765 
17 *876:106 *876:121 9.66022 
18 *876:121 *876:125 31.2471 
19 *876:125 *876:131 15.3399 
20 *876:131 *876:133 11.798 
21 *876:133 *1273:C 15.4311 
22 *876:133 *876:146 4.5 
23 *876:146 *1177:C 13.686 
24 *876:146 *876:157 20.2913 
25 *876:157 *1178:C 9.24915 
26 *876:157 *876:166 9.50349 
27 *876:166 *876:172 21.3562 
28 *876:172 *876:186 40.1197 
29 *876:186 *876:188 1.18155 
30 *876:188 *876:190 4.14747 
31 *876:190 *876:196 18.4707 
32 *876:196 *1174:C 34.4509 
33 *876:196 *1270:C 9.24915 
34 *876:190 *1181:C 23.9336 
35 *876:188 *1277:C 9.24915 
36 *876:186 *876:242 32.1715 
37 *876:242 *1179:C 9.24915 
38 *876:242 *876:255 15.6825 
39 *876:255 *876:261 28.4814 
40 *876:261 *1261:C 14.0144 
41 *876:261 *1165:C 24.9014 
42 *876:255 *1275:C 18.3379 
43 *876:172 *1274:C 9.24915 
44 *876:166 *876:301 13.8743 
45 *876:301 *1282:C 17.0527 
46 *876:301 *1186:C 30.5117 
47 *876:131 *1292:C 14.0144 
48 *876:125 *1196:C 14.0144 
49 *876:121 *1285:C 15.0604 
50 *876:104 *876:350 6.98366 
51 *876:350 *1286:C 9.24915 
52 *876:350 *876:357 20.1345 
53 *876:357 *1169:C 9.24915 
54 *876:357 *876:368 4.70207 
55 *876:368 *876:376 19.5845 
56 *876:376 *1173:C 23.2532 
57 *876:376 *1269:C 14.2044 
58 *876:368 *876:410 12.3976 
59 *876:410 *876:414 22.5126 
60 *876:414 *1191:C 9.24915 
61 *876:414 *1287:C 33.0697 
62 *876:410 *1265:C 31.0635 
63 *876:102 *1190:C 21.7914 
*END

*D_NET *877 0.0601779
*CONN
*I *1347:C I *D sky130_fd_sc_hd__and3_1
*I *994:B I *D sky130_fd_sc_hd__and3_1
*I *1342:C I *D sky130_fd_sc_hd__and3_1
*I *1339:C I *D sky130_fd_sc_hd__and3_1
*I *986:B I *D sky130_fd_sc_hd__and3_1
*I *972:B I *D sky130_fd_sc_hd__and3_1
*I *1325:C I *D sky130_fd_sc_hd__and3_1
*I *989:B I *D sky130_fd_sc_hd__and3_1
*I *981:B I *D sky130_fd_sc_hd__and3_1
*I *1334:C I *D sky130_fd_sc_hd__and3_1
*I *999:B I *D sky130_fd_sc_hd__and3_1
*I *1336:C I *D sky130_fd_sc_hd__and3_1
*I *983:B I *D sky130_fd_sc_hd__and3_1
*I *973:B I *D sky130_fd_sc_hd__and3_1
*I *995:B I *D sky130_fd_sc_hd__and3_1
*I *1348:C I *D sky130_fd_sc_hd__and3_1
*I *1352:C I *D sky130_fd_sc_hd__and3_1
*I *978:B I *D sky130_fd_sc_hd__and3_1
*I *1331:C I *D sky130_fd_sc_hd__and3_1
*I *992:B I *D sky130_fd_sc_hd__and3_1
*I *1345:C I *D sky130_fd_sc_hd__and3_1
*I *1326:C I *D sky130_fd_sc_hd__and3_1
*I *1328:C I *D sky130_fd_sc_hd__and3_1
*I *2281:X O *D sky130_fd_sc_hd__buf_16
*CAP
1 *1347:C 0.000172519
2 *994:B 0
3 *1342:C 4.66422e-05
4 *1339:C 0.000246141
5 *986:B 5.30837e-05
6 *972:B 0.000508026
7 *1325:C 7.11213e-05
8 *989:B 0
9 *981:B 0
10 *1334:C 0.000122382
11 *999:B 0
12 *1336:C 0
13 *983:B 0.000207944
14 *973:B 0
15 *995:B 0
16 *1348:C 0.000151429
17 *1352:C 0.001066
18 *978:B 9.11515e-05
19 *1331:C 3.67245e-05
20 *992:B 0
21 *1345:C 0.000562256
22 *1326:C 9.28633e-05
23 *1328:C 0.00032848
24 *2281:X 0.000376579
25 *877:302 0.000752006
26 *877:283 0.00148524
27 *877:262 0.00160193
28 *877:247 0.00134585
29 *877:241 0.00106702
30 *877:230 0.000998958
31 *877:211 0.00134527
32 *877:200 0.00254221
33 *877:185 0.00165241
34 *877:170 0.00134796
35 *877:162 0.00119139
36 *877:158 0.00114872
37 *877:105 0.00176303
38 *877:88 0.00122154
39 *877:84 0.00105078
40 *877:82 0.000714438
41 *877:71 0.000653701
42 *877:54 0.0022649
43 *877:44 0.00169185
44 *877:29 0.000510254
45 *877:23 0.0010783
46 *877:21 0.00144744
47 *877:15 0.00144744
48 *877:6 0.000705059
49 *972:B *1613:CLK 0
50 *983:B *1592:CLK 5.92342e-05
51 *983:B *892:14 0.0001521
52 *1331:C *893:193 2.02035e-05
53 *1331:C *893:251 1.58661e-05
54 *1342:C *1630:CLK 7.93303e-06
55 *1347:C *892:92 2.45203e-05
56 *877:21 *884:268 3.82525e-05
57 *877:29 *1614:CLK 6.3657e-05
58 *877:54 *1582:CLK 0
59 *877:54 *893:128 6.91561e-06
60 *877:88 *2298:A 0.00026791
61 *877:170 *892:14 6.87077e-05
62 *877:170 *892:36 0.000139927
63 *877:170 *892:45 0.00032511
64 *877:170 *892:58 0.000447433
65 *877:170 *892:71 0.000347913
66 *877:170 *903:230 0.000977266
67 *877:200 *892:12 0.000868394
68 *877:200 *892:124 8.40859e-05
69 *877:200 *892:135 1.34231e-05
70 *877:241 *1622:CLK 0.000222112
71 *877:241 *880:189 0.00029184
72 *877:241 *891:144 5.86078e-05
73 *877:241 *891:155 0.00015661
74 *877:241 *891:166 0.000178143
75 *877:241 *891:179 0.000391746
76 *877:247 *891:144 0.000209824
77 *877:262 *880:207 2.33638e-05
78 *877:262 *880:221 0.00020504
79 *877:262 *891:62 2.65831e-05
80 *877:283 *891:62 0.000160908
81 *877:283 *891:225 3.31745e-05
82 *981:A *1334:C 2.23105e-05
83 *983:C *983:B 1.45538e-05
84 *986:C *986:B 1.73447e-06
85 *989:A *877:247 2.72743e-05
86 *989:C *877:247 5.73651e-06
87 *989:C *877:262 1.09739e-05
88 *994:C *877:170 3.32461e-05
89 *995:A *877:84 0
90 *999:A *877:200 5.20546e-06
91 *999:C *877:211 5.78939e-06
92 *1011:A1 *877:158 2.14362e-05
93 *1020:S0 *877:21 9.84495e-05
94 *1021:S0 *877:21 0
95 *1036:A2 *1352:C 0.000719853
96 *1092:A0 *877:262 0.000324137
97 *1106:A2 *877:71 0
98 *1106:A2 *877:82 7.14746e-05
99 *1229:C *877:283 2.53992e-05
100 *1294:C *877:44 0.000140071
101 *1310:A *877:241 0.000377934
102 *1325:A *1325:C 2.23105e-05
103 *1336:B *877:185 2.41274e-06
104 *1336:B *877:200 3.13805e-06
105 *1339:B *1339:C 2.01499e-05
106 *1347:A *1347:C 6.08467e-05
107 *1347:A *877:158 0.000110458
108 *1389:D *877:283 0.000477042
109 *1400:D *983:B 1.03403e-05
110 *1406:D *877:262 0.000681474
111 *1409:D *877:54 0.000142644
112 *1409:D *877:71 0.000192027
113 *1411:D *877:170 0.000450693
114 *1411:DE *877:170 4.16614e-05
115 *1456:D *877:21 0.000139166
116 *1523:D *1331:C 1.66626e-05
117 *1587:DE *978:B 0.000157383
118 *1587:DE *1352:C 0.000124903
119 *1604:DE *877:54 0
120 *1604:DE *877:71 0
121 *1604:DE *877:84 0
122 *1613:D *972:B 0.000201532
123 *1614:D *1326:C 3.60883e-05
124 *1614:D *877:29 0.000213956
125 *1614:DE *877:29 3.70952e-05
126 *1622:DE *1334:C 0
127 *1627:D *1339:C 0.000124391
128 *1636:D *877:84 0
129 *1636:DE *877:71 3.64899e-05
130 *1636:DE *877:82 0
131 *1640:D *1352:C 7.85066e-05
132 *9:59 *877:247 0
133 *9:63 *877:247 0.000122083
134 *9:72 *877:241 0.000253417
135 *9:72 *877:247 1.07248e-05
136 *13:34 *877:82 0.000150064
137 *13:49 *877:71 0.000356595
138 *13:55 *1345:C 0.000330695
139 *15:34 *1347:C 5.1493e-06
140 *15:34 *877:162 6.34777e-05
141 *15:45 *1347:C 1.22892e-05
142 *20:55 *1352:C 1.92336e-05
143 *32:35 *1334:C 3.5534e-06
144 *68:304 *877:21 0.000512468
145 *68:306 *877:21 0.000232209
146 *334:14 *877:21 5.63008e-05
147 *418:194 *1347:C 4.37678e-05
148 *418:194 *877:162 0.000145903
149 *424:234 *877:21 0.000274143
150 *432:14 *972:B 0
151 *432:14 *877:302 0
152 *437:16 *1326:C 3.96696e-05
153 *437:16 *877:29 0.000176741
154 *437:16 *877:158 6.20849e-05
155 *437:20 *1326:C 2.03156e-05
156 *501:14 *877:88 0.00228902
157 *501:14 *877:105 0.0016471
158 *541:14 *1352:C 0.000304683
159 *541:16 *1352:C 0.00012816
160 *551:14 *877:54 0
161 *856:212 *1339:C 2.93387e-05
162 *856:212 *877:302 0.000331009
163 *857:35 *877:21 0.000117872
164 *857:39 *877:21 0.00015849
165 *857:45 *877:21 0
166 *857:45 *877:44 0.000173794
167 *857:45 *877:54 3.00073e-05
168 *857:59 *877:54 0
169 *858:497 *1325:C 0
170 *859:39 *978:B 0
171 *859:39 *1352:C 0
172 *860:82 *877:170 0.000250947
173 *862:10 *877:170 0
174 *862:80 *972:B 6.36343e-06
175 *863:100 *877:21 1.06344e-05
176 *865:199 *877:21 0.000127885
177 *865:315 *877:21 0.000889582
178 *866:84 *972:B 0
179 *866:84 *877:302 0
180 *867:61 *983:B 0.000120768
181 *867:61 *877:170 8.74597e-05
182 *867:67 *983:B 9.62952e-05
183 *867:141 *877:211 1.56911e-05
184 *868:67 *877:82 0.000449583
185 *868:69 *877:82 1.03594e-05
186 *868:69 *877:84 0.000100634
187 *868:71 *877:84 0.000505596
188 *874:344 *877:170 0.000298828
189 *874:348 *877:170 2.18698e-05
190 *874:451 *877:230 0.000407993
191 *874:451 *877:241 0.000302956
192 *874:594 *1339:C 9.76945e-05
193 *874:600 *1339:C 7.14746e-05
194 *874:600 *877:302 0.00070021
195 *875:67 *1328:C 0.00049014
196 *875:67 *877:6 0.000608259
197 *876:261 *1325:C 7.14746e-05
*RES
1 *2281:X *877:6 16.0732 
2 *877:6 *1328:C 14.8072 
3 *877:6 *877:15 4.5 
4 *877:15 *877:21 49.6593 
5 *877:21 *877:23 4.5 
6 *877:23 *877:29 7.01694 
7 *877:29 *1326:C 12.1126 
8 *877:29 *877:44 12.1455 
9 *877:44 *877:54 39.9037 
10 *877:54 *1345:C 23.7535 
11 *877:54 *877:71 13.5989 
12 *877:71 *992:B 9.24915 
13 *877:71 *877:82 15.5026 
14 *877:82 *877:84 10.7599 
15 *877:84 *877:88 6.40179 
16 *877:88 *1331:C 18.027 
17 *877:88 *877:105 5.63689 
18 *877:105 *978:B 16.6193 
19 *877:105 *1352:C 41.0647 
20 *877:84 *1348:C 17.0527 
21 *877:82 *995:B 13.7491 
22 *877:44 *973:B 13.7491 
23 *877:23 *877:158 24.6345 
24 *877:158 *877:162 7.1625 
25 *877:162 *877:170 47.6489 
26 *877:170 *983:B 19.49 
27 *877:170 *877:185 4.76525 
28 *877:185 *1336:C 9.24915 
29 *877:185 *877:200 29.5628 
30 *877:200 *999:B 9.24915 
31 *877:200 *877:211 17.5246 
32 *877:211 *1334:C 16.054 
33 *877:211 *877:230 10.217 
34 *877:230 *981:B 9.24915 
35 *877:230 *877:241 31.0063 
36 *877:241 *877:247 11.9047 
37 *877:247 *989:B 9.24915 
38 *877:247 *877:262 28.4053 
39 *877:262 *1325:C 19.9311 
40 *877:262 *877:283 17.063 
41 *877:283 *972:B 24.4226 
42 *877:283 *877:302 17.1963 
43 *877:302 *986:B 14.4725 
44 *877:302 *1339:C 20.685 
45 *877:241 *1342:C 14.569 
46 *877:162 *994:B 9.24915 
47 *877:158 *1347:C 16.6797 
*END

*D_NET *878 0.050934
*CONN
*I *974:B I *D sky130_fd_sc_hd__and3_1
*I *1351:C I *D sky130_fd_sc_hd__and3_1
*I *976:B I *D sky130_fd_sc_hd__and3_1
*I *998:B I *D sky130_fd_sc_hd__and3_1
*I *980:B I *D sky130_fd_sc_hd__and3_1
*I *1333:C I *D sky130_fd_sc_hd__and3_1
*I *1346:C I *D sky130_fd_sc_hd__and3_1
*I *993:B I *D sky130_fd_sc_hd__and3_1
*I *1338:C I *D sky130_fd_sc_hd__and3_1
*I *1341:C I *D sky130_fd_sc_hd__and3_1
*I *988:B I *D sky130_fd_sc_hd__and3_1
*I *985:B I *D sky130_fd_sc_hd__and3_1
*I *1329:C I *D sky130_fd_sc_hd__and3_1
*I *997:B I *D sky130_fd_sc_hd__and3_1
*I *1350:C I *D sky130_fd_sc_hd__and3_1
*I *1000:B I *D sky130_fd_sc_hd__and3_1
*I *1353:C I *D sky130_fd_sc_hd__and3_1
*I *1327:C I *D sky130_fd_sc_hd__and3_1
*I *943:B I *D sky130_fd_sc_hd__nand2_1
*I *2282:X O *D sky130_fd_sc_hd__probec_p_8
*CAP
1 *974:B 0
2 *1351:C 0.000691694
3 *976:B 0.000771075
4 *998:B 0
5 *980:B 0.000482382
6 *1333:C 1.65675e-05
7 *1346:C 0.000209358
8 *993:B 0
9 *1338:C 1.38531e-05
10 *1341:C 0.000825247
11 *988:B 0
12 *985:B 0
13 *1329:C 3.73354e-05
14 *997:B 0.000427396
15 *1350:C 0.000338801
16 *1000:B 0.000661491
17 *1353:C 0
18 *1327:C 0.000534863
19 *943:B 7.58175e-05
20 *2282:X 0.000867204
21 *878:267 0.00159458
22 *878:258 0.000159482
23 *878:197 0.00102729
24 *878:184 0.000939813
25 *878:174 0.00148691
26 *878:160 0.000836947
27 *878:154 0.000769472
28 *878:152 0.000781576
29 *878:148 0.00222005
30 *878:142 0.00163856
31 *878:129 0.00123412
32 *878:104 0.00203642
33 *878:83 0.000995901
34 *878:68 0.000824497
35 *878:57 0.00104024
36 *878:45 0.00134255
37 *878:30 0.00147817
38 *878:13 0.0014861
39 *943:B *881:8 0.000103042
40 *976:B *1393:CLK 0.000410656
41 *997:B *888:165 8.11618e-05
42 *1327:C *1519:CLK 0.000691168
43 *1327:C *1615:CLK 0
44 *1327:C *880:12 0
45 *1341:C *1405:CLK 8.14831e-05
46 *1341:C *880:275 0.000646832
47 *1341:C *891:366 0.00017866
48 *1341:C *891:377 8.95222e-05
49 *1341:C *891:388 8.45103e-05
50 *878:13 *2290:A 0
51 *878:30 *881:8 0.000132421
52 *878:57 *1417:CLK 0.00020468
53 *878:104 *1606:CLK 1.78942e-05
54 *878:129 *1131:S0 4.09926e-05
55 *878:129 *888:165 2.21564e-05
56 *878:148 *1027:S 1.3023e-05
57 *878:148 *880:358 0.000139397
58 *878:148 *906:121 7.37562e-05
59 *878:152 *906:121 0
60 *878:154 *906:121 0
61 *878:174 *881:387 0.000392712
62 *878:174 *881:405 0.000918411
63 *943:A *943:B 6.50586e-05
64 *944:B *878:13 0.000411017
65 *947:A *943:B 0.000105605
66 *947:A *878:30 8.61737e-06
67 *980:A *980:B 9.19886e-06
68 *980:C *980:B 1.21461e-06
69 *985:A *878:184 4.03856e-05
70 *985:C *878:184 5.37587e-06
71 *985:C *878:197 1.4129e-06
72 *988:C *1341:C 1.73447e-06
73 *993:A *878:174 1.21461e-06
74 *993:C *878:160 2.08274e-05
75 *993:C *878:174 5.04829e-06
76 *1000:C *1000:B 1.64862e-06
77 *1026:A1 *878:148 1.49898e-05
78 *1027:A0 *878:148 0
79 *1045:A1 *878:154 7.30424e-05
80 *1045:A3 *878:154 0
81 *1110:A0 *878:174 5.3627e-06
82 *1131:A1 *878:129 7.68409e-05
83 *1131:A3 *878:129 0.000133638
84 *1146:A2 *1000:B 0
85 *1190:C *997:B 9.75356e-05
86 *1223:A *878:148 2.352e-05
87 *1233:A *878:129 0.000190979
88 *1233:B *878:129 0.000159032
89 *1242:C *1338:C 9.77424e-05
90 *1255:B *1351:C 7.50872e-05
91 *1255:B *878:148 3.98252e-05
92 *1255:B *878:258 4.71853e-05
93 *1255:B *878:267 0.000384265
94 *1255:C *1351:C 0
95 *1274:A *878:184 2.85274e-05
96 *1301:B *1346:C 4.66375e-06
97 *1306:B *878:184 0.00044126
98 *1327:A *1327:C 2.23105e-05
99 *1341:B *1341:C 6.747e-06
100 *1346:A *1346:C 6.50727e-05
101 *1350:A *1350:C 0.000120474
102 *1351:B *1351:C 8.02814e-06
103 *1383:D *878:148 0.000488895
104 *1383:DE *878:148 5.68225e-06
105 *1393:D *976:B 2.82097e-05
106 *1393:DE *976:B 1.69178e-06
107 *1402:D *878:197 4.25622e-06
108 *1405:D *1341:C 2.61973e-05
109 *1417:D *1000:B 0.00086475
110 *1417:D *878:57 0
111 *1417:DE *1000:B 1.5714e-05
112 *1478:D *997:B 3.20069e-06
113 *1511:D *878:148 7.74066e-05
114 *1511:DE *878:148 0
115 *1519:D *1327:C 0
116 *1597:DE *1341:C 4.13714e-05
117 *1597:DE *878:197 7.14746e-05
118 *1606:D *878:104 9.50623e-06
119 *1606:D *878:129 1.59362e-06
120 *1615:D *1327:C 3.56119e-05
121 *1626:D *878:184 0.000514791
122 *1629:D *1341:C 7.98171e-06
123 *1641:D *1350:C 0.000114659
124 *1641:D *878:68 9.25028e-05
125 *1641:D *878:83 0.000178051
126 *1641:D *878:104 1.88422e-05
127 *5:30 *1338:C 9.77424e-05
128 *5:76 *878:174 2.95757e-05
129 *5:76 *878:184 8.34839e-05
130 *5:80 *878:184 5.39463e-05
131 *19:64 *878:148 0.000112509
132 *19:83 *1351:C 7.32647e-05
133 *19:83 *878:148 4.68411e-05
134 *19:83 *878:258 4.00886e-05
135 *19:83 *878:267 0.000271823
136 *23:21 *1327:C 0
137 *31:43 *1333:C 2.23105e-05
138 *31:43 *878:154 0
139 *69:442 *1327:C 0.000164529
140 *77:16 *878:13 0.000115513
141 *125:54 *878:57 2.1203e-06
142 *125:54 *878:68 0.00021217
143 *125:54 *878:83 0.000405053
144 *125:54 *878:104 0.000849841
145 *125:71 *878:104 5.23657e-06
146 *126:50 *1350:C 0.000104634
147 *126:75 *878:142 0.000103579
148 *126:139 *878:197 7.50722e-05
149 *341:20 *878:154 0
150 *417:402 *1346:C 7.8568e-06
151 *417:465 *878:148 0
152 *417:477 *878:142 0.00102316
153 *417:512 *878:57 2.12556e-06
154 *417:512 *878:68 1.5934e-05
155 *417:512 *878:104 8.06067e-05
156 *417:526 *878:57 1.21461e-06
157 *427:265 *1327:C 0.000166514
158 *427:278 *1327:C 8.0389e-05
159 *427:301 *1327:C 4.58247e-05
160 *427:333 *1000:B 7.50872e-05
161 *427:366 *878:129 0.000159926
162 *427:373 *878:129 7.92757e-06
163 *427:404 *1329:C 3.39433e-05
164 *427:404 *878:129 1.00901e-05
165 *427:404 *878:142 3.04232e-05
166 *427:431 *878:148 0
167 *427:431 *878:152 0.000142522
168 *427:431 *878:154 1.35043e-05
169 *427:512 *1341:C 0.000374367
170 *465:12 *878:154 0.00066778
171 *465:12 *878:160 0.000199159
172 *465:12 *878:174 0.000684676
173 *465:24 *878:184 9.00342e-05
174 *517:10 *878:174 0.000827093
175 *532:16 *878:129 4.07343e-05
176 *861:13 *878:30 0.00075791
177 *861:13 *878:45 0.000531876
178 *861:44 *1000:B 0.000229456
179 *861:44 *1350:C 0
180 *861:65 *976:B 0.000118421
181 *861:65 *878:267 1.5714e-05
182 *861:86 *976:B 1.03403e-05
183 *864:92 *1341:C 0
184 *870:27 *878:129 0.000290668
185 *870:27 *878:142 0.000112361
186 *870:35 *878:142 0.00115113
187 *870:56 *878:148 0.000136646
188 *870:82 *878:154 0.00102919
189 *870:82 *878:160 0.000195561
190 *870:106 *878:184 0
191 *872:67 *878:45 9.82896e-06
192 *872:67 *878:57 0.000656049
193 *872:84 *997:B 0.000103139
194 *872:153 *878:57 0.000188377
195 *874:652 *1341:C 2.23124e-05
196 *874:752 *878:174 3.80364e-05
197 *874:752 *878:184 7.15393e-05
198 *875:20 *878:30 5.01109e-05
*RES
1 *2282:X *878:13 5.7591 
2 *878:13 *943:B 16.5122 
3 *878:13 *878:30 15.4427 
4 *878:30 *1327:C 36.5412 
5 *878:30 *878:45 6.82404 
6 *878:45 *878:57 35.72 
7 *878:57 *1353:C 9.24915 
8 *878:57 *878:68 4.11733 
9 *878:68 *1000:B 38.2479 
10 *878:68 *878:83 4.60562 
11 *878:83 *1350:C 24.6439 
12 *878:83 *878:104 20.1012 
13 *878:104 *997:B 23.506 
14 *878:104 *878:129 43.1499 
15 *878:129 *1329:C 10.503 
16 *878:129 *878:142 18.5339 
17 *878:142 *878:148 41.1117 
18 *878:148 *878:152 13.3913 
19 *878:152 *878:154 21.3488 
20 *878:154 *878:160 8.7164 
21 *878:160 *878:174 38.07 
22 *878:174 *878:184 25.6841 
23 *878:184 *985:B 9.24915 
24 *878:184 *878:197 12.8039 
25 *878:197 *988:B 9.24915 
26 *878:197 *1341:C 45.1494 
27 *878:174 *1338:C 14.8342 
28 *878:160 *993:B 9.24915 
29 *878:154 *1346:C 16.7874 
30 *878:152 *1333:C 14.0144 
31 *878:148 *980:B 16.0732 
32 *878:142 *878:258 1.00149 
33 *878:258 *998:B 13.7491 
34 *878:258 *878:267 6.81502 
35 *878:267 *976:B 26.6738 
36 *878:267 *1351:C 25.963 
37 *878:45 *974:B 9.24915 
*END

*D_NET *879 0.0366426
*CONN
*I *946:A I *D sky130_fd_sc_hd__nand2_1
*I *2282:A I *D sky130_fd_sc_hd__probec_p_8
*I *1354:C I *D sky130_fd_sc_hd__and3_1
*I *1001:B I *D sky130_fd_sc_hd__and3_1
*I *975:B I *D sky130_fd_sc_hd__and3_1
*I *1349:C I *D sky130_fd_sc_hd__and3_1
*I *996:B I *D sky130_fd_sc_hd__and3_1
*I *1003:B I *D sky130_fd_sc_hd__and3_1
*I *1356:C I *D sky130_fd_sc_hd__and3_1
*I *984:B I *D sky130_fd_sc_hd__and3_1
*I *1337:C I *D sky130_fd_sc_hd__and3_1
*I *991:B I *D sky130_fd_sc_hd__and3_1
*I *1344:C I *D sky130_fd_sc_hd__and3_1
*I *2281:A I *D sky130_fd_sc_hd__buf_16
*I *2283:X O *D sky130_fd_sc_hd__buf_8
*CAP
1 *946:A 0.000139938
2 *2282:A 0
3 *1354:C 7.74635e-05
4 *1001:B 0.000207419
5 *975:B 0.000235908
6 *1349:C 0.000671957
7 *996:B 0
8 *1003:B 0
9 *1356:C 0.000194532
10 *984:B 0.00056012
11 *1337:C 0.000447928
12 *991:B 0
13 *1344:C 0.00018702
14 *2281:A 9.26532e-05
15 *2283:X 0.00109482
16 *879:143 0.000975544
17 *879:89 0.00148161
18 *879:85 0.000847331
19 *879:81 0.000743216
20 *879:77 0.00272386
21 *879:68 0.00185629
22 *879:51 0.0019886
23 *879:32 0.00193059
24 *879:30 0.000742906
25 *879:22 0.00143826
26 *879:16 0.00172391
27 *879:14 0.00104777
28 *879:12 0.00139629
29 *984:B *1065:S1 0.000124556
30 *1337:C *890:139 2.29386e-05
31 *1337:C *890:141 5.86078e-05
32 *1344:C *880:41 0
33 *1349:C *1126:S0 0
34 *1349:C *881:92 0
35 *1356:C *890:197 4.31603e-06
36 *879:12 *1692:CLK 2.58757e-05
37 *879:12 *886:152 4.47179e-05
38 *879:14 *886:156 0
39 *879:16 *886:156 0
40 *879:77 *1408:CLK 4.16927e-05
41 *879:77 *880:149 0.000702252
42 *879:81 *889:87 0.000321708
43 *879:143 *889:87 0.000148859
44 *946:B *946:A 8.35237e-05
45 *948:A *879:12 0.000367146
46 *948:B *879:12 1.1718e-05
47 *948:C *879:12 7.25155e-05
48 *949:B *879:22 7.23852e-05
49 *975:C *975:B 5.57132e-06
50 *991:C *879:51 2.02035e-05
51 *996:A *879:143 1.21461e-06
52 *996:C *1349:C 8.41637e-05
53 *996:C *879:143 1.21461e-06
54 *1001:C *1001:B 3.58951e-06
55 *1003:C *879:81 0.000114659
56 *1003:C *879:85 3.28416e-06
57 *1066:A0 *984:B 0
58 *1066:A1 *984:B 0
59 *1101:A0 *879:77 1.46927e-05
60 *1114:A2 *1337:C 0
61 *1126:A2 *1349:C 0
62 *1161:A2 *879:81 0.000125243
63 *1194:C *879:16 2.89976e-05
64 *1232:B *2281:A 0
65 *1241:C *1337:C 0
66 *1337:A *1337:C 0.000259016
67 *1344:B *879:77 0.000157107
68 *1392:D *975:B 4.94835e-05
69 *1408:D *879:77 6.78364e-06
70 *1408:DE *879:77 4.96564e-05
71 *1413:D *1349:C 2.57314e-06
72 *1413:D *879:143 2.85531e-06
73 *1413:DE *879:143 0.000136301
74 *1420:D *879:81 0.000142984
75 *1529:D *1337:C 1.32772e-05
76 *1536:D *879:51 6.91232e-06
77 *1536:DE *879:51 7.63123e-05
78 *1584:D *2281:A 0
79 *1593:DE *1356:C 2.64016e-05
80 *1605:D *1349:C 6.57386e-05
81 *1616:D *2281:A 8.36586e-06
82 *1616:D *879:30 4.63888e-05
83 *1616:D *879:32 6.20469e-05
84 *1625:D *1337:C 4.74617e-05
85 *1625:D *879:89 4.10737e-05
86 *1637:D *1349:C 3.06647e-05
87 *1642:D *1354:C 0.000107496
88 *1692:D *879:12 9.86471e-05
89 *4:17 *984:B 0.000143185
90 *11:61 *879:51 0
91 *11:65 *1344:C 0
92 *11:65 *879:51 0
93 *17:43 *1349:C 7.43087e-05
94 *22:17 *879:16 2.1558e-06
95 *22:23 *879:16 5.17049e-05
96 *22:70 *1001:B 2.20821e-05
97 *22:70 *879:22 7.81552e-05
98 *25:39 *879:81 9.70025e-06
99 *25:47 *1356:C 0.000166519
100 *25:47 *879:85 0.000171288
101 *83:44 *879:16 0
102 *83:65 *879:22 4.81015e-05
103 *101:14 *946:A 0
104 *123:122 *1354:C 6.7929e-05
105 *396:22 *1356:C 6.88791e-05
106 *418:30 *879:16 0.000698656
107 *418:30 *879:22 0.000284018
108 *421:25 *879:12 0.000186836
109 *421:67 *879:22 1.75637e-06
110 *421:75 *975:B 4.79321e-06
111 *421:75 *879:30 0.000832344
112 *422:16 *946:A 3.69203e-05
113 *422:16 *879:14 1.88878e-05
114 *423:12 *879:12 0.000400749
115 *423:14 *879:14 0.000156062
116 *423:14 *879:16 0.000904029
117 *423:20 *879:16 0.00011191
118 *423:24 *879:16 0.000834232
119 *423:24 *879:22 0.000280421
120 *427:245 *946:A 4.89251e-05
121 *481:14 *984:B 0.000125657
122 *481:14 *1337:C 4.33249e-05
123 *856:18 *2281:A 2.30636e-05
124 *856:18 *879:51 0.000307799
125 *856:22 *2281:A 0.000159016
126 *856:22 *879:51 5.85071e-05
127 *856:108 *879:51 0.000453655
128 *856:320 *1356:C 0.000161234
129 *856:320 *879:89 1.0017e-05
130 *857:27 *879:30 0.000187625
131 *857:35 *2281:A 6.8054e-05
132 *857:35 *879:30 0.000572748
133 *857:35 *879:32 6.38245e-05
134 *857:319 *1349:C 0.000492507
135 *860:48 *879:81 4.17264e-05
136 *860:48 *879:143 1.20726e-05
137 *860:58 *879:81 3.24928e-05
138 *860:58 *879:89 0
139 *871:25 *879:51 8.84069e-05
140 *871:46 *1344:C 4.35885e-05
141 *871:46 *879:51 3.14976e-05
142 *871:65 *1344:C 1.65166e-05
143 *871:84 *879:81 0.000141552
144 *874:306 *879:89 7.14746e-05
145 *874:312 *879:89 0.000695314
146 *875:44 *879:30 0
147 *875:67 *2281:A 0.000210531
148 *875:330 *1344:C 7.67134e-05
*RES
1 *2283:X *879:12 43.5048 
2 *879:12 *879:14 4.32351 
3 *879:14 *879:16 33.8064 
4 *879:16 *879:22 19.8057 
5 *879:22 *879:30 24.2611 
6 *879:30 *879:32 1.41674 
7 *879:32 *2281:A 17.5531 
8 *879:32 *879:51 39.6952 
9 *879:51 *1344:C 18.5505 
10 *879:51 *879:68 4.5 
11 *879:68 *991:B 9.24915 
12 *879:68 *879:77 32.9536 
13 *879:77 *879:81 24.6031 
14 *879:81 *879:85 7.44181 
15 *879:85 *879:89 18.6965 
16 *879:89 *1337:C 23.4016 
17 *879:89 *984:B 19.568 
18 *879:85 *1356:C 20.8807 
19 *879:81 *1003:B 9.24915 
20 *879:77 *879:143 12.593 
21 *879:143 *996:B 9.24915 
22 *879:143 *1349:C 37.1281 
23 *879:30 *975:B 17.2456 
24 *879:22 *1001:B 12.191 
25 *879:16 *1354:C 15.9434 
26 *879:14 *2282:A 13.7491 
27 *879:12 *946:A 17.6896 
*END

*D_NET *880 0.10871
*CONN
*I *1112:S I *D sky130_fd_sc_hd__mux2i_1
*I *1072:S I *D sky130_fd_sc_hd__mux2i_1
*I *1017:S I *D sky130_fd_sc_hd__mux2i_1
*I *1027:S I *D sky130_fd_sc_hd__mux2i_1
*I *1137:S I *D sky130_fd_sc_hd__mux2i_1
*I *1047:S I *D sky130_fd_sc_hd__mux2i_1
*I *1132:S I *D sky130_fd_sc_hd__mux2i_1
*I *1147:S I *D sky130_fd_sc_hd__mux2i_1
*I *1022:S I *D sky130_fd_sc_hd__mux2i_1
*I *1102:S I *D sky130_fd_sc_hd__mux2i_1
*I *1067:S I *D sky130_fd_sc_hd__mux2i_1
*I *1087:S I *D sky130_fd_sc_hd__mux2i_1
*I *1077:S I *D sky130_fd_sc_hd__mux2i_1
*I *1052:S I *D sky130_fd_sc_hd__mux2i_1
*I *1142:S I *D sky130_fd_sc_hd__mux2i_1
*I *1092:S I *D sky130_fd_sc_hd__mux2i_1
*I *1007:S I *D sky130_fd_sc_hd__mux2i_1
*I *1127:S I *D sky130_fd_sc_hd__mux2i_1
*I *1162:S I *D sky130_fd_sc_hd__mux2i_1
*I *1117:S I *D sky130_fd_sc_hd__mux2i_1
*I *1012:S I *D sky130_fd_sc_hd__mux2i_1
*I *1107:S I *D sky130_fd_sc_hd__mux2i_1
*I *1062:S I *D sky130_fd_sc_hd__mux2i_1
*I *1037:S I *D sky130_fd_sc_hd__mux2i_1
*I *1122:S I *D sky130_fd_sc_hd__mux2i_1
*I *1152:S I *D sky130_fd_sc_hd__mux2i_1
*I *2284:X O *D sky130_fd_sc_hd__buf_12
*CAP
1 *1112:S 7.1962e-05
2 *1072:S 0.000372356
3 *1017:S 0.000285574
4 *1027:S 9.52246e-06
5 *1137:S 0.000448572
6 *1047:S 0.00155046
7 *1132:S 0.00044198
8 *1147:S 7.52198e-06
9 *1022:S 0
10 *1102:S 3.20073e-05
11 *1067:S 0.0002777
12 *1087:S 0
13 *1077:S 0
14 *1052:S 0
15 *1142:S 5.80862e-05
16 *1092:S 2.1308e-05
17 *1007:S 0
18 *1127:S 0.000215664
19 *1162:S 0
20 *1117:S 0.000735586
21 *1012:S 0
22 *1107:S 4.47842e-05
23 *1062:S 0.00151743
24 *1037:S 0.00123553
25 *1122:S 0.000159439
26 *1152:S 0
27 *2284:X 0.00129254
28 *880:425 0.00135607
29 *880:362 0.00157334
30 *880:358 0.00165994
31 *880:339 0.00282533
32 *880:326 0.00221392
33 *880:320 0.00221614
34 *880:275 0.000855952
35 *880:255 0.0027971
36 *880:221 0.00156046
37 *880:207 0.00293037
38 *880:189 0.00255623
39 *880:179 0.00172252
40 *880:175 0.00296188
41 *880:173 0.00242528
42 *880:156 0.00209037
43 *880:149 0.00142932
44 *880:141 0.00235739
45 *880:59 0.00256643
46 *880:55 0.00289587
47 *880:53 0.00145148
48 *880:51 0.00218749
49 *880:41 0.00275388
50 *880:33 0.00251547
51 *880:29 0.00130812
52 *880:21 0.00202238
53 *880:14 0.00020729
54 *880:12 0.00131472
55 *1017:S *887:340 0.000251167
56 *1017:S *887:351 0.000154089
57 *1017:S *906:64 0.000109427
58 *1037:S *1459:DE 0.000266309
59 *1037:S *1576:DE 0.000191635
60 *1037:S *903:106 0.000379316
61 *1037:S *904:74 0.00189573
62 *1047:S *1621:CLK 0.000112367
63 *1047:S *883:131 0.00148754
64 *1047:S *889:289 3.08214e-05
65 *1107:S *1656:CLK 0.000379505
66 *1117:S *890:197 0
67 *1122:S *903:106 0.000115819
68 *1122:S *904:74 0.000535343
69 *1127:S *905:12 0.000764335
70 *1132:S *1131:S0 0
71 *1132:S *883:95 0
72 *1132:S *888:205 0.000114584
73 *880:12 *1487:CLK 0
74 *880:12 *881:8 0
75 *880:12 *881:14 0
76 *880:29 *887:79 0.000296332
77 *880:29 *887:81 0.000150816
78 *880:29 *887:91 1.25946e-05
79 *880:29 *887:191 0.000111722
80 *880:33 *1408:CLK 7.92757e-06
81 *880:33 *887:191 8.07303e-05
82 *880:41 *903:230 1.86178e-05
83 *880:51 *903:230 0.000566597
84 *880:59 *893:189 0.000161966
85 *880:59 *893:191 0.000593864
86 *880:59 *893:193 0.000185686
87 *880:59 *893:199 0.000245711
88 *880:59 *893:255 0
89 *880:173 *890:234 0
90 *880:179 *1051:S0 0.000167548
91 *880:179 *890:40 0
92 *880:189 *1050:S1 0.000578428
93 *880:189 *1051:S0 0
94 *880:189 *1622:CLK 0
95 *880:189 *881:259 4.51176e-05
96 *880:207 *1406:CLK 0.000855518
97 *880:207 *881:187 0
98 *880:221 *1005:S1 0.00013311
99 *880:221 *1389:CLK 0.000202245
100 *880:221 *891:62 0.0005768
101 *880:221 *891:225 0.000198909
102 *880:275 *1597:CLK 5.04829e-06
103 *880:275 *891:366 0.00010193
104 *880:320 *881:27 0
105 *880:320 *881:40 0
106 *880:320 *887:272 0.000214364
107 *880:326 *881:40 0
108 *880:326 *887:340 5.74984e-05
109 *880:339 *881:55 0
110 *966:B *1132:S 0
111 *1006:A1 *880:221 1.79672e-05
112 *1010:A0 *880:51 1.43086e-05
113 *1011:A0 *880:53 2.83365e-05
114 *1011:A1 *880:53 0
115 *1012:A0 *880:51 2.13165e-05
116 *1012:A0 *880:53 0.000493085
117 *1012:A1 *880:51 0
118 *1017:A1 *1017:S 9.70888e-05
119 *1017:A1 *880:326 2.67011e-05
120 *1037:A1 *1037:S 6.53912e-05
121 *1050:A0 *880:179 0
122 *1050:A0 *880:189 4.16097e-05
123 *1050:A1 *880:179 0
124 *1052:A0 *880:189 0.00030767
125 *1052:A1 *880:189 0.000112367
126 *1062:A0 *1062:S 0.000330596
127 *1087:A0 *880:255 0.000149264
128 *1087:A0 *880:275 1.4418e-05
129 *1092:A0 *880:207 0.0003773
130 *1092:A1 *880:207 6.50586e-05
131 *1101:A1 *880:141 0.00024449
132 *1102:A0 *1102:S 1.14755e-05
133 *1102:A0 *880:141 2.51195e-05
134 *1102:A0 *880:149 1.39721e-05
135 *1102:A1 *1102:S 3.20069e-06
136 *1102:A1 *880:141 7.22498e-05
137 *1105:A1 *1062:S 1.80819e-05
138 *1105:A3 *880:55 3.42731e-05
139 *1107:A1 *1107:S 0.000166542
140 *1107:A1 *880:53 5.51903e-05
141 *1107:A1 *880:55 0.000184916
142 *1112:A0 *1072:S 0.000112837
143 *1112:A0 *1112:S 0.000114584
144 *1112:A0 *880:425 5.1493e-06
145 *1112:A1 *1112:S 1.65872e-05
146 *1112:A1 *880:425 0.000123582
147 *1115:A0 *1117:S 0.000542672
148 *1115:A1 *1117:S 0.00015321
149 *1117:A1 *1117:S 0
150 *1120:A1 *1122:S 7.86825e-06
151 *1120:S1 *1122:S 1.11499e-05
152 *1122:A1 *880:59 3.88213e-05
153 *1130:A0 *1132:S 0.000280966
154 *1130:A1 *1132:S 0
155 *1132:A1 *1132:S 0
156 *1135:A1 *1137:S 0.000196836
157 *1135:S1 *1137:S 6.51686e-05
158 *1152:A0 *880:14 6.64392e-05
159 *1152:A0 *880:21 0.000200955
160 *1152:A1 *880:12 4.3116e-06
161 *1160:A0 *880:173 0
162 *1162:A1 *880:149 0.000113068
163 *1162:A1 *880:156 0.000539163
164 *1162:A1 *880:173 0.000299994
165 *1167:A *880:29 0.000122068
166 *1196:B *880:156 0.000180874
167 *1196:B *880:173 0.00011475
168 *1199:A *880:21 0.000377259
169 *1199:B *880:21 0.000217923
170 *1216:B *880:29 0.000342731
171 *1246:B *880:207 0.00015607
172 *1263:B *880:320 0.000211573
173 *1280:C *880:29 0.000181617
174 *1299:A *880:59 0.000391278
175 *1301:A *880:425 0.000213661
176 *1301:B *880:425 0.000566595
177 *1310:A *880:189 0.00021668
178 *1310:A *880:207 0.000157826
179 *1327:C *880:12 0
180 *1341:C *880:275 0.000646832
181 *1344:C *880:41 0
182 *1346:A *880:425 0
183 *1359:B *880:12 0.000320293
184 *1385:D *880:326 1.27046e-05
185 *1389:D *880:221 3.92774e-05
186 *1389:DE *880:221 7.35086e-06
187 *1398:D *880:189 0.000133276
188 *1398:DE *880:189 0.000109274
189 *1406:D *880:207 5.49029e-06
190 *1406:DE *880:207 7.62718e-06
191 *1410:D *880:425 0.000326613
192 *1455:D *880:320 1.55462e-05
193 *1487:D *880:12 0
194 *1504:D *880:29 2.33193e-05
195 *1511:DE *880:358 0.00181719
196 *1511:DE *880:362 0.000139344
197 *1523:D *880:59 2.59614e-05
198 *1551:D *880:320 6.09999e-05
199 *1597:D *880:275 9.04668e-05
200 *1622:DE *880:189 0
201 *1632:D *880:33 5.34249e-06
202 *1632:D *880:41 0.00042667
203 *1632:DE *880:141 1.06674e-05
204 *1634:D *880:425 0.000389594
205 *1647:D *880:12 9.68437e-05
206 *1664:D *880:29 0.000289151
207 *8:31 *880:255 0.000563077
208 *8:33 *880:255 0.000190993
209 *9:72 *880:207 7.73825e-05
210 *11:17 *880:320 1.17485e-06
211 *11:61 *880:29 0.000780462
212 *15:17 *880:53 0
213 *15:17 *880:59 0
214 *15:30 *880:53 0
215 *19:15 *1137:S 0.000796283
216 *19:15 *880:362 0.000938282
217 *23:29 *880:29 5.05252e-05
218 *29:75 *880:59 0.000385399
219 *69:442 *880:12 0
220 *82:22 *880:41 4.67605e-06
221 *121:59 *880:29 0
222 *121:137 *1127:S 0.000764335
223 *123:62 *880:41 0
224 *124:123 *880:173 0
225 *124:123 *880:175 0
226 *124:133 *880:175 0
227 *125:97 *880:425 2.53624e-06
228 *125:99 *1072:S 0
229 *125:99 *880:425 5.21758e-06
230 *126:89 *1047:S 0.00136192
231 *126:139 *880:275 0.000109421
232 *417:307 *880:29 0.000257426
233 *417:313 *880:29 0.000443247
234 *418:326 *880:21 0.000107496
235 *418:326 *880:320 9.32983e-05
236 *418:377 *880:326 0.000316507
237 *418:377 *880:339 0.000233237
238 *418:418 *880:339 0.000145619
239 *418:443 *880:173 0.000299049
240 *423:315 *880:12 0.000151304
241 *423:358 *1147:S 2.02035e-05
242 *424:272 *880:51 0
243 *424:272 *880:53 0
244 *424:278 *880:53 0
245 *424:278 *880:55 0
246 *424:278 *880:59 0
247 *424:291 *880:59 0
248 *424:297 *880:59 0
249 *427:456 *880:425 0.000293947
250 *427:512 *880:275 0.000385779
251 *427:524 *880:275 0.000142209
252 *429:16 *880:12 0.000172703
253 *449:14 *880:320 0.00142413
254 *449:14 *880:326 0.000249272
255 *449:14 *880:339 0.000172389
256 *449:14 *880:358 0.000147025
257 *457:16 *1037:S 0
258 *464:26 *1047:S 0.000365663
259 *464:26 *880:425 6.36477e-05
260 *469:18 *880:189 0.000127109
261 *479:12 *1067:S 0.000151228
262 *484:14 *1072:S 6.55651e-05
263 *488:14 *880:275 0.000122378
264 *509:18 *880:149 0
265 *520:14 *1117:S 9.11135e-05
266 *537:16 *1137:S 0
267 *537:16 *880:362 0.000436651
268 *544:14 *1147:S 2.02035e-05
269 *763:20 *1062:S 1.03403e-05
270 *763:20 *880:55 8.16827e-05
271 *763:20 *880:59 0.00055688
272 *856:168 *1142:S 7.19887e-05
273 *856:308 *1102:S 0
274 *856:308 *880:149 0
275 *858:18 *880:51 0
276 *858:24 *880:51 0
277 *858:24 *880:53 0
278 *858:157 *880:51 0.000419593
279 *858:402 *880:358 5.25742e-05
280 *859:77 *880:189 4.47491e-05
281 *860:34 *880:41 0.000296048
282 *860:42 *880:41 1.62625e-05
283 *862:70 *880:189 0
284 *863:37 *880:41 0
285 *863:45 *880:41 0.000746119
286 *863:45 *880:51 0.000244966
287 *865:239 *1037:S 0.000803676
288 *866:84 *880:221 0.000220183
289 *867:16 *880:41 0
290 *868:96 *880:59 9.08421e-05
291 *870:82 *880:425 0
292 *870:98 *880:425 0
293 *871:19 *880:320 7.39701e-05
294 *871:21 *880:320 2.95757e-05
295 *874:295 *1117:S 0
296 *874:326 *880:51 0.000216293
297 *874:652 *880:275 0.000424471
298 *875:20 *880:12 0
299 *875:230 *880:207 4.97617e-05
300 *876:6 *880:21 6.42019e-05
301 *876:12 *880:29 5.71739e-05
302 *876:45 *880:320 7.68538e-06
303 *877:241 *880:189 0.00029184
304 *877:262 *880:207 2.33638e-05
305 *877:262 *880:221 0.00020504
306 *878:148 *1027:S 1.3023e-05
307 *878:148 *880:358 0.000139397
308 *879:77 *880:149 0.000702252
*RES
1 *2284:X *880:12 49.7356 
2 *880:12 *880:14 0.723396 
3 *880:14 *1152:S 9.24915 
4 *880:14 *880:21 8.48785 
5 *880:21 *880:29 47.4064 
6 *880:29 *880:33 6.70347 
7 *880:33 *880:41 37.5492 
8 *880:41 *880:51 39.2976 
9 *880:51 *880:53 30.4844 
10 *880:53 *880:55 6.39977 
11 *880:55 *880:59 43.6116 
12 *880:59 *1122:S 18.2348 
13 *880:59 *1037:S 25.2284 
14 *880:55 *1062:S 47.9417 
15 *880:53 *1107:S 17.8002 
16 *880:51 *1012:S 13.7491 
17 *880:41 *1117:S 43.1828 
18 *880:33 *880:141 23.3565 
19 *880:141 *880:149 34.9406 
20 *880:149 *1162:S 9.24915 
21 *880:149 *880:156 6.26943 
22 *880:156 *1127:S 31.7082 
23 *880:156 *880:173 47.2011 
24 *880:173 *880:175 9.72179 
25 *880:175 *880:179 18.7896 
26 *880:179 *880:189 42.7066 
27 *880:189 *880:207 45.4135 
28 *880:207 *880:221 44.4884 
29 *880:221 *1007:S 9.24915 
30 *880:207 *1092:S 9.82786 
31 *880:189 *1142:S 15.5817 
32 *880:179 *1052:S 9.24915 
33 *880:175 *880:255 37.7039 
34 *880:255 *880:275 45.8779 
35 *880:275 *1077:S 9.24915 
36 *880:255 *1087:S 9.24915 
37 *880:173 *1067:S 20.5732 
38 *880:141 *1102:S 14.7506 
39 *880:29 *1022:S 9.24915 
40 *880:21 *880:320 19.3668 
41 *880:320 *880:326 8.00431 
42 *880:326 *1147:S 17.4965 
43 *880:326 *880:339 2.95651 
44 *880:339 *1132:S 27.9101 
45 *880:339 *880:358 9.52323 
46 *880:358 *880:362 5.25444 
47 *880:362 *1047:S 49.0964 
48 *880:362 *1137:S 25.1848 
49 *880:358 *1027:S 14.1278 
50 *880:320 *1017:S 22.8803 
51 *1047:S *880:425 46.5935 
52 *880:425 *1072:S 23.3638 
53 *880:425 *1112:S 15.5817 
*END

*D_NET *881 0.101301
*CONN
*I *1150:S1 I *D sky130_fd_sc_hd__mux4_2
*I *1025:S1 I *D sky130_fd_sc_hd__mux4_2
*I *1130:S1 I *D sky130_fd_sc_hd__mux4_2
*I *1125:S1 I *D sky130_fd_sc_hd__mux4_2
*I *1045:S1 I *D sky130_fd_sc_hd__mux4_2
*I *1046:S1 I *D sky130_fd_sc_hd__mux4_2
*I *1111:S1 I *D sky130_fd_sc_hd__mux4_2
*I *1071:S1 I *D sky130_fd_sc_hd__mux4_2
*I *1110:S1 I *D sky130_fd_sc_hd__mux4_2
*I *1070:S1 I *D sky130_fd_sc_hd__mux4_2
*I *1085:S1 I *D sky130_fd_sc_hd__mux4_2
*I *1086:S1 I *D sky130_fd_sc_hd__mux4_2
*I *1076:S1 I *D sky130_fd_sc_hd__mux4_2
*I *1126:S1 I *D sky130_fd_sc_hd__mux4_2
*I *1101:S1 I *D sky130_fd_sc_hd__mux4_2
*I *1100:S1 I *D sky130_fd_sc_hd__mux4_2
*I *1115:S1 I *D sky130_fd_sc_hd__mux4_2
*I *1066:S1 I *D sky130_fd_sc_hd__mux4_2
*I *1065:S1 I *D sky130_fd_sc_hd__mux4_2
*I *1116:S1 I *D sky130_fd_sc_hd__mux4_2
*I *1060:S1 I *D sky130_fd_sc_hd__mux4_2
*I *1061:S1 I *D sky130_fd_sc_hd__mux4_2
*I *1140:S1 I *D sky130_fd_sc_hd__mux4_2
*I *1050:S1 I *D sky130_fd_sc_hd__mux4_2
*I *1051:S1 I *D sky130_fd_sc_hd__mux4_2
*I *1075:S1 I *D sky130_fd_sc_hd__mux4_2
*I *1006:S1 I *D sky130_fd_sc_hd__mux4_2
*I *1005:S1 I *D sky130_fd_sc_hd__mux4_2
*I *1091:S1 I *D sky130_fd_sc_hd__mux4_2
*I *1090:S1 I *D sky130_fd_sc_hd__mux4_2
*I *1141:S1 I *D sky130_fd_sc_hd__mux4_2
*I *1036:S1 I *D sky130_fd_sc_hd__mux4_2
*I *1035:S1 I *D sky130_fd_sc_hd__mux4_2
*I *1161:S1 I *D sky130_fd_sc_hd__mux4_2
*I *1160:S1 I *D sky130_fd_sc_hd__mux4_2
*I *1145:S1 I *D sky130_fd_sc_hd__mux4_2
*I *1015:S1 I *D sky130_fd_sc_hd__mux4_2
*I *1151:S1 I *D sky130_fd_sc_hd__mux4_2
*I *2285:X O *D sky130_fd_sc_hd__buf_12
*CAP
1 *1150:S1 0.000164534
2 *1025:S1 0.000734713
3 *1130:S1 0
4 *1125:S1 0
5 *1045:S1 0
6 *1046:S1 0
7 *1111:S1 0
8 *1071:S1 0.000877092
9 *1110:S1 0
10 *1070:S1 0.000295768
11 *1085:S1 0
12 *1086:S1 0
13 *1076:S1 0.000440111
14 *1126:S1 0
15 *1101:S1 0
16 *1100:S1 0.000883708
17 *1115:S1 0
18 *1066:S1 0
19 *1065:S1 0.00162441
20 *1116:S1 0
21 *1060:S1 0
22 *1061:S1 0
23 *1140:S1 0
24 *1050:S1 0.000517587
25 *1051:S1 0
26 *1075:S1 0.000155198
27 *1006:S1 0
28 *1005:S1 0.000632025
29 *1091:S1 0
30 *1090:S1 0.000697883
31 *1141:S1 0.000299451
32 *1036:S1 0
33 *1035:S1 0.000534961
34 *1161:S1 0.000427797
35 *1160:S1 0.000449103
36 *1145:S1 0.000106264
37 *1015:S1 0.00014018
38 *1151:S1 2.3655e-05
39 *2285:X 0.000654045
40 *881:525 0.0010749
41 *881:486 0.00136664
42 *881:482 0.00120125
43 *881:433 0.00133442
44 *881:417 0.00166548
45 *881:405 0.00200592
46 *881:387 0.00159906
47 *881:383 0.00145662
48 *881:379 0.00146364
49 *881:365 0.00150292
50 *881:309 0.0020689
51 *881:259 0.00220835
52 *881:216 0.00184787
53 *881:204 0.00203078
54 *881:189 0.000659739
55 *881:187 0.00231365
56 *881:174 0.00305499
57 *881:166 0.00182888
58 *881:145 0.00148483
59 *881:123 0.00073834
60 *881:121 0.00193676
61 *881:119 0.00138855
62 *881:117 0.00168099
63 *881:115 0.00135583
64 *881:113 0.00119495
65 *881:111 0.00126417
66 *881:109 0.00181814
67 *881:107 0.000860498
68 *881:92 0.00154207
69 *881:86 0.00052744
70 *881:63 0.00112224
71 *881:57 0.00103736
72 *881:55 0.00181767
73 *881:40 0.00189244
74 *881:27 0.00180928
75 *881:14 0.0014386
76 *881:8 0.0013869
77 *1005:S1 *1005:S0 0
78 *1025:S1 *1025:S0 0.000419639
79 *1025:S1 *2292:A 3.36246e-05
80 *1035:S1 *1035:S0 0
81 *1065:S1 *905:36 0.00152875
82 *1090:S1 *1090:S0 0
83 *1090:S1 *1470:DE 0.000119367
84 *1100:S1 *882:20 0
85 *1100:S1 *882:26 0
86 *1141:S1 *1141:S0 3.00257e-05
87 *1160:S1 *1160:S0 0.000210945
88 *1160:S1 *889:68 0.000239009
89 *1161:S1 *1161:S0 0.000522261
90 *881:63 *889:68 0.000253826
91 *881:92 *1126:S0 0.000171145
92 *881:92 *1161:S0 4.32427e-05
93 *881:107 *882:161 0.000675025
94 *881:111 *882:26 0
95 *881:113 *882:32 0
96 *881:115 *882:34 0
97 *881:115 *882:40 0
98 *881:117 *896:53 0.000104058
99 *881:119 *2296:A 3.79013e-05
100 *881:119 *882:42 0
101 *881:119 *882:44 0
102 *881:121 *882:44 0
103 *881:166 *1141:S0 0
104 *881:174 *1141:S0 0
105 *881:174 *1566:CLK 0.000113628
106 *881:174 *1566:DE 3.34544e-06
107 *881:174 *882:107 0
108 *881:187 *1090:S0 0
109 *881:204 *1467:CLK 0.000365076
110 *881:204 *891:21 0.000108249
111 *881:259 *1075:S0 0
112 *881:259 *1467:CLK 0
113 *881:259 *1659:CLK 9.22013e-06
114 *881:259 *882:196 0
115 *881:259 *891:324 5.61125e-05
116 *881:259 *903:268 0
117 *881:309 *1066:S0 0.00127561
118 *881:309 *890:137 0.000264703
119 *881:379 *1125:S0 0.00045114
120 *881:379 *897:98 4.17054e-05
121 *881:379 *905:12 3.88213e-05
122 *881:387 *906:127 6.14682e-06
123 *881:405 *1466:DE 6.74412e-05
124 *881:405 *1562:CLK 0
125 *881:417 *1070:S0 0.00016802
126 *881:482 *1045:S0 0.000556187
127 *881:482 *1046:S0 2.33374e-05
128 *881:525 *1130:S0 0.000426067
129 *943:B *881:8 0.000103042
130 *944:B *881:8 1.91391e-05
131 *947:A *881:8 9.83112e-05
132 *966:B *1025:S1 1.60887e-05
133 *981:C *1050:S1 0
134 *984:B *1065:S1 0.000124556
135 *993:A *881:387 0.000163344
136 *1005:A2 *1005:S1 6.57892e-05
137 *1005:A3 *1005:S1 1.03594e-05
138 *1006:A1 *1005:S1 0
139 *1006:A3 *1005:S1 1.07248e-05
140 *1006:A3 *881:216 8.52968e-05
141 *1035:A3 *1035:S1 0
142 *1036:A0 *1035:S1 0
143 *1036:A1 *1035:S1 0
144 *1036:A1 *881:123 0
145 *1036:A1 *881:145 3.54999e-05
146 *1036:A2 *1035:S1 0
147 *1036:A2 *881:121 0
148 *1036:A2 *881:123 0
149 *1037:A0 *1035:S1 0
150 *1045:A1 *881:379 0
151 *1045:A3 *881:379 0.000185617
152 *1046:A2 *881:482 0.000203756
153 *1050:A0 *1050:S1 5.05247e-05
154 *1060:A0 *881:117 0
155 *1060:A0 *881:119 0
156 *1060:A1 *881:117 0
157 *1060:A3 *881:119 0.000101133
158 *1061:A0 *881:119 0
159 *1061:A0 *881:121 0
160 *1061:A1 *881:119 0
161 *1061:A3 *881:121 9.60366e-05
162 *1062:A0 *881:119 0
163 *1062:A1 *881:119 0
164 *1065:A1 *1065:S1 0.000154145
165 *1066:A1 *1065:S1 0
166 *1066:A2 *1065:S1 1.98565e-05
167 *1066:A2 *881:309 0.000109421
168 *1070:A2 *1070:S1 0.000157107
169 *1070:A3 *1070:S1 6.08467e-05
170 *1076:A0 *1076:S1 0
171 *1079:A2 *881:259 0
172 *1085:A0 *881:433 0.000180515
173 *1085:A3 *881:433 0.000152599
174 *1090:A0 *1090:S1 0
175 *1090:A3 *1090:S1 0.000187505
176 *1091:A0 *881:204 2.59921e-05
177 *1091:A1 *881:187 0
178 *1091:A1 *881:259 2.14842e-06
179 *1091:A3 *881:259 3.98296e-05
180 *1092:A0 *881:204 2.57986e-05
181 *1092:A1 *1090:S1 0
182 *1092:A1 *881:187 0
183 *1100:A2 *1100:S1 0
184 *1101:A1 *1100:S1 0
185 *1101:A3 *881:111 0.000453593
186 *1102:A0 *1100:S1 0
187 *1102:A1 *1100:S1 0
188 *1110:A3 *881:387 0.000120105
189 *1110:A3 *881:405 3.20069e-06
190 *1111:A1 *1071:S1 0
191 *1111:A3 *1071:S1 1.07248e-05
192 *1111:A3 *881:486 8.52968e-05
193 *1114:A2 *1065:S1 0.000149977
194 *1115:A2 *881:111 0
195 *1115:A2 *881:113 0
196 *1116:A0 *881:117 0
197 *1116:A3 *881:117 0.000472013
198 *1125:A2 *881:365 5.20308e-05
199 *1125:A3 *881:365 6.27718e-05
200 *1126:A3 *881:86 0.000169733
201 *1126:A3 *881:92 6.64392e-05
202 *1127:A0 *881:63 6.45581e-05
203 *1127:A0 *881:86 3.82228e-05
204 *1130:A0 *1025:S1 0.0003382
205 *1130:A3 *1025:S1 6.27782e-05
206 *1130:A3 *881:525 6.27718e-05
207 *1132:A1 *1025:S1 1.10813e-05
208 *1140:A2 *881:145 6.50586e-05
209 *1140:A3 *881:166 6.30541e-06
210 *1140:A3 *881:174 3.32268e-05
211 *1150:A0 *881:14 2.4707e-05
212 *1150:A1 *881:8 5.78236e-05
213 *1151:A3 *1151:S1 4.59911e-05
214 *1151:A3 *881:14 0.000101135
215 *1152:A0 *881:14 0
216 *1152:A1 *881:14 0
217 *1154:A2 *881:14 5.54049e-05
218 *1154:A2 *881:27 2.58954e-06
219 *1160:A2 *1160:S1 0.000217031
220 *1160:A3 *1160:S1 6.64392e-05
221 *1162:A0 *1161:S1 0
222 *1171:B *1035:S1 0
223 *1174:C *1050:S1 0
224 *1181:B *881:433 0.000180334
225 *1211:B *881:259 3.95854e-05
226 *1270:B *1050:S1 0
227 *1285:B *881:57 9.2346e-06
228 *1301:A *881:482 2.16355e-05
229 *1301:C *881:482 1.21499e-05
230 *1305:C *881:309 0.000244118
231 *1309:A *881:433 6.50727e-05
232 *1309:C *881:433 0.000300682
233 *1349:C *881:92 0
234 *1359:B *881:8 0
235 *1371:A *881:259 0.000354082
236 *1381:D *881:57 0.000305926
237 *1381:D *881:63 0.000144659
238 *1389:DE *1005:S1 0.000185477
239 *1389:DE *881:216 5.99922e-05
240 *1398:D *1050:S1 0.00016345
241 *1398:D *881:259 4.97938e-05
242 *1403:DE *881:216 4.4147e-05
243 *1406:D *881:187 0
244 *1406:DE *881:187 9.16209e-05
245 *1489:DE *1025:S1 4.75721e-06
246 *1562:D *881:405 0.000117877
247 *1562:D *881:417 0.000178823
248 *1574:D *881:525 8.6297e-06
249 *1597:D *881:433 2.57847e-05
250 *1627:DE *1076:S1 0.000235655
251 *1649:DE *1025:S1 3.77568e-05
252 *1659:D *881:259 0.000149379
253 *4:5 *1065:S1 0.000348032
254 *4:7 *1065:S1 6.52606e-05
255 *4:17 *1065:S1 6.06994e-05
256 *8:31 *881:417 0.000208728
257 *11:17 *881:27 3.52076e-06
258 *17:31 *881:57 3.00073e-05
259 *121:112 *881:57 0
260 *121:176 *1025:S1 0.000564322
261 *124:56 *1015:S1 0
262 *124:62 *1100:S1 0
263 *124:83 *881:379 4.75571e-06
264 *124:226 *881:40 0.000109803
265 *124:226 *881:57 6.89016e-06
266 *124:226 *881:525 0.000552649
267 *318:24 *881:174 3.19278e-05
268 *418:230 *881:174 0.000485193
269 *418:418 *881:57 0.000581494
270 *418:418 *881:525 2.19588e-05
271 *418:461 *1065:S1 0
272 *418:518 *881:379 2.19239e-05
273 *423:364 *881:57 0
274 *423:368 *881:57 0
275 *423:368 *881:63 4.0014e-05
276 *423:381 *1065:S1 0.000197622
277 *424:364 *1035:S1 0
278 *427:472 *881:405 0.000137404
279 *427:482 *881:405 0.000195313
280 *427:536 *1075:S1 0
281 *457:16 *1035:S1 0.000217129
282 *464:26 *881:486 3.00174e-06
283 *465:12 *881:387 0.000201059
284 *465:24 *881:405 0.000206911
285 *465:24 *881:417 0.000122497
286 *465:34 *881:417 5.7907e-05
287 *465:34 *881:433 0.000416394
288 *477:18 *881:119 0
289 *501:14 *881:145 0.000104638
290 *509:18 *881:111 0
291 *520:14 *881:111 6.53794e-05
292 *520:14 *881:113 0.000147447
293 *520:14 *881:115 0.000164524
294 *520:14 *881:117 3.67528e-06
295 *521:22 *881:111 1.91246e-05
296 *537:16 *1025:S1 3.27241e-05
297 *545:16 *1145:S1 8.47436e-05
298 *545:16 *881:27 0.00216477
299 *545:16 *881:40 0.00240974
300 *545:16 *881:55 0.000109882
301 *557:18 *881:92 0
302 *856:8 *881:8 0
303 *856:8 *881:14 0
304 *857:209 *881:216 0.000118356
305 *858:337 *1100:S1 0
306 *858:431 *881:63 3.5853e-05
307 *858:431 *881:379 0.00183465
308 *858:441 *1160:S1 0.000242486
309 *858:441 *881:63 0.000458508
310 *858:462 *1065:S1 0.000137022
311 *859:12 *881:117 0.000276754
312 *859:12 *881:119 0.00020906
313 *859:77 *881:187 5.77631e-05
314 *859:77 *881:259 3.70353e-05
315 *859:98 *881:187 1.85244e-05
316 *861:101 *1071:S1 0.000171864
317 *861:101 *881:486 0.000367942
318 *861:103 *1071:S1 0.000519534
319 *862:80 *881:174 0.000159586
320 *871:65 *881:111 0
321 *874:295 *881:111 0
322 *874:667 *881:433 3.50618e-05
323 *874:752 *881:405 8.46399e-05
324 *875:20 *881:8 3.27973e-05
325 *875:330 *881:111 0.000479757
326 *876:125 *881:57 8.20492e-06
327 *876:125 *881:379 1.83828e-05
328 *876:172 *881:405 0
329 *876:172 *881:417 0
330 *876:242 *881:259 0
331 *876:261 *1075:S1 0.000179509
332 *876:301 *881:405 0
333 *878:30 *881:8 0.000132421
334 *878:174 *881:387 0.000392712
335 *878:174 *881:405 0.000918411
336 *880:12 *881:8 0
337 *880:12 *881:14 0
338 *880:189 *1050:S1 0.000578428
339 *880:189 *881:259 4.51176e-05
340 *880:207 *881:187 0
341 *880:221 *1005:S1 0.00013311
342 *880:320 *881:27 0
343 *880:320 *881:40 0
344 *880:326 *881:40 0
345 *880:339 *881:55 0
*RES
1 *2285:X *881:8 30.9455 
2 *881:8 *881:14 13.8865 
3 *881:14 *1151:S1 14.543 
4 *881:14 *881:27 6.40179 
5 *881:27 *1015:S1 20.4033 
6 *881:27 *881:40 3.33896 
7 *881:40 *1145:S1 20.4033 
8 *881:40 *881:55 5.5604 
9 *881:55 *881:57 16.9887 
10 *881:57 *881:63 14.9247 
11 *881:63 *1160:S1 27.6697 
12 *881:63 *881:86 12.1077 
13 *881:86 *881:92 11.7653 
14 *881:92 *1161:S1 26.5521 
15 *881:92 *881:107 26.2983 
16 *881:107 *881:109 4.5 
17 *881:109 *881:111 26.7471 
18 *881:111 *881:113 9.30653 
19 *881:113 *881:115 10.9675 
20 *881:115 *881:117 26.7471 
21 *881:117 *881:119 20.1031 
22 *881:119 *881:121 15.5353 
23 *881:121 *881:123 4.73876 
24 *881:123 *1035:S1 26.7929 
25 *881:123 *1036:S1 13.7491 
26 *881:121 *881:145 31.9075 
27 *881:145 *1141:S1 21.2603 
28 *881:145 *881:166 2.23503 
29 *881:166 *881:174 37.8977 
30 *881:174 *1090:S1 31.6689 
31 *881:174 *881:187 15.9506 
32 *881:187 *881:189 4.5 
33 *881:189 *1091:S1 9.24915 
34 *881:189 *881:204 23.0431 
35 *881:204 *881:216 14.9355 
36 *881:216 *1005:S1 32.6798 
37 *881:216 *1006:S1 13.7491 
38 *881:204 *1075:S1 17.7579 
39 *881:187 *881:259 30.0125 
40 *881:259 *1051:S1 13.7491 
41 *881:259 *1050:S1 30.15 
42 *881:166 *1140:S1 13.7491 
43 *881:119 *1061:S1 13.7491 
44 *881:117 *1060:S1 13.7491 
45 *881:115 *1116:S1 13.7491 
46 *881:113 *881:309 22.4161 
47 *881:309 *1065:S1 35.8766 
48 *881:309 *1066:S1 9.24915 
49 *881:111 *1115:S1 13.7491 
50 *881:109 *1100:S1 33.8522 
51 *881:107 *1101:S1 9.24915 
52 *881:86 *1126:S1 9.24915 
53 *881:57 *881:365 7.44181 
54 *881:365 *881:379 24.3031 
55 *881:379 *881:383 1.85672 
56 *881:383 *881:387 26.6794 
57 *881:387 *881:405 41.3614 
58 *881:405 *881:417 26.809 
59 *881:417 *881:433 36.7506 
60 *881:433 *1076:S1 31.2929 
61 *881:433 *1086:S1 9.24915 
62 *881:417 *1085:S1 9.24915 
63 *881:405 *1070:S1 18.3789 
64 *881:387 *1110:S1 13.7491 
65 *881:383 *881:482 18.5672 
66 *881:482 *881:486 20.0353 
67 *881:486 *1071:S1 40.4963 
68 *881:486 *1111:S1 13.7491 
69 *881:482 *1046:S1 9.24915 
70 *881:379 *1045:S1 9.24915 
71 *881:365 *1125:S1 9.24915 
72 *881:55 *881:525 17.5566 
73 *881:525 *1130:S1 9.24915 
74 *881:525 *1025:S1 39.209 
75 *881:8 *1150:S1 17.2456 
*END

*D_NET *882 0.0560154
*CONN
*I *1086:S0 I *D sky130_fd_sc_hd__mux4_2
*I *1076:S0 I *D sky130_fd_sc_hd__mux4_2
*I *1006:S0 I *D sky130_fd_sc_hd__mux4_2
*I *1005:S0 I *D sky130_fd_sc_hd__mux4_2
*I *1071:S0 I *D sky130_fd_sc_hd__mux4_2
*I *1075:S0 I *D sky130_fd_sc_hd__mux4_2
*I *1160:S0 I *D sky130_fd_sc_hd__mux4_2
*I *1070:S0 I *D sky130_fd_sc_hd__mux4_2
*I *1085:S0 I *D sky130_fd_sc_hd__mux4_2
*I *1091:S0 I *D sky130_fd_sc_hd__mux4_2
*I *1090:S0 I *D sky130_fd_sc_hd__mux4_2
*I *1051:S0 I *D sky130_fd_sc_hd__mux4_2
*I *1126:S0 I *D sky130_fd_sc_hd__mux4_2
*I *1161:S0 I *D sky130_fd_sc_hd__mux4_2
*I *1065:S0 I *D sky130_fd_sc_hd__mux4_2
*I *1050:S0 I *D sky130_fd_sc_hd__mux4_2
*I *1141:S0 I *D sky130_fd_sc_hd__mux4_2
*I *1140:S0 I *D sky130_fd_sc_hd__mux4_2
*I *1101:S0 I *D sky130_fd_sc_hd__mux4_2
*I *1115:S0 I *D sky130_fd_sc_hd__mux4_2
*I *1066:S0 I *D sky130_fd_sc_hd__mux4_2
*I *1116:S0 I *D sky130_fd_sc_hd__mux4_2
*I *1060:S0 I *D sky130_fd_sc_hd__mux4_2
*I *1061:S0 I *D sky130_fd_sc_hd__mux4_2
*I *1036:S0 I *D sky130_fd_sc_hd__mux4_2
*I *1035:S0 I *D sky130_fd_sc_hd__mux4_2
*I *1100:S0 I *D sky130_fd_sc_hd__mux4_2
*I *2286:X O *D sky130_fd_sc_hd__buf_12
*CAP
1 *1086:S0 0.000420346
2 *1076:S0 0
3 *1006:S0 0
4 *1005:S0 0.000502739
5 *1071:S0 0.000546519
6 *1075:S0 0.0014113
7 *1160:S0 0.000488144
8 *1070:S0 0.00113019
9 *1085:S0 0.000938838
10 *1091:S0 0.000596105
11 *1090:S0 0.00140131
12 *1051:S0 0.00177538
13 *1126:S0 0.00058113
14 *1161:S0 0.000302154
15 *1065:S0 0.00136786
16 *1050:S0 0.00159436
17 *1141:S0 0.000287298
18 *1140:S0 0
19 *1101:S0 0.00054198
20 *1115:S0 0
21 *1066:S0 0.000728599
22 *1116:S0 0
23 *1060:S0 0
24 *1061:S0 0
25 *1036:S0 0.000698718
26 *1035:S0 0.000461341
27 *1100:S0 0.000981928
28 *2286:X 0.000182767
29 *882:320 0.00111414
30 *882:306 0.000733029
31 *882:304 0.00173928
32 *882:214 0.00158724
33 *882:196 0.00251512
34 *882:161 0.00093712
35 *882:133 0.00249403
36 *882:107 0.000986016
37 *882:44 0.0012842
38 *882:42 0.00161632
39 *882:40 0.00164201
40 *882:34 0.00121534
41 *882:32 0.00125026
42 *882:26 0.0015617
43 *882:20 0.00194791
44 *1035:S0 *1555:DE 4.69495e-06
45 *1050:S0 *890:76 0
46 *1050:S0 *890:89 0.000145045
47 *1050:S0 *890:123 4.86266e-05
48 *1051:S0 *903:268 0
49 *1065:S0 *890:123 8.94313e-05
50 *1071:S0 *1530:CLK 6.85861e-07
51 *1071:S0 *890:265 0.000113968
52 *1071:S0 *890:267 9.22013e-06
53 *1075:S0 *1467:CLK 6.73619e-05
54 *1086:S0 *891:366 0
55 *1090:S0 *891:103 7.61548e-05
56 *882:133 *890:123 0.000131204
57 *882:133 *890:137 3.16719e-05
58 *882:196 *903:268 0
59 *882:304 *891:29 0
60 *882:304 *891:254 1.40667e-05
61 *882:320 *891:254 0
62 *882:320 *891:357 0
63 *882:320 *891:366 0
64 *978:C *1035:S0 0
65 *986:A *882:304 0.000169776
66 *986:C *882:304 8.89175e-06
67 *1005:A2 *1005:S0 3.30805e-05
68 *1005:S1 *1005:S0 0
69 *1006:A2 *1005:S0 5.88662e-05
70 *1006:A2 *882:306 3.06126e-05
71 *1035:A3 *1035:S0 0.000302104
72 *1035:S1 *1035:S0 0
73 *1036:A0 *1035:S0 0.000124379
74 *1036:A0 *882:107 2.7823e-05
75 *1036:A2 *1035:S0 1.2693e-05
76 *1036:A2 *882:44 0.000134063
77 *1050:A0 *1051:S0 0
78 *1050:A2 *1050:S0 0
79 *1050:A3 *1050:S0 4.05065e-05
80 *1051:A0 *1051:S0 7.86847e-05
81 *1051:A1 *1051:S0 0
82 *1051:A1 *882:196 0.000133857
83 *1052:A0 *1051:S0 0
84 *1052:A1 *1051:S0 3.99031e-05
85 *1061:A3 *882:44 0
86 *1065:A0 *1085:S0 0.000346348
87 *1065:A3 *1065:S0 5.7672e-05
88 *1066:A0 *1050:S0 5.69183e-05
89 *1066:A0 *882:133 0.000250293
90 *1067:A0 *882:133 0.000111208
91 *1070:A1 *1071:S0 0.000335004
92 *1075:A0 *882:304 2.85924e-05
93 *1076:A2 *1086:S0 3.06126e-05
94 *1076:A2 *882:320 8.63345e-05
95 *1085:A2 *1085:S0 8.10802e-05
96 *1090:A2 *1090:S0 7.50722e-05
97 *1090:A3 *1090:S0 0
98 *1090:S1 *1090:S0 0
99 *1091:A0 *1075:S0 0
100 *1091:A1 *1075:S0 9.98348e-06
101 *1091:A2 *1090:S0 5.80354e-05
102 *1091:A2 *882:196 2.3681e-05
103 *1100:A2 *882:20 5.6047e-05
104 *1100:S1 *882:20 0
105 *1100:S1 *882:26 0
106 *1101:A3 *882:26 0
107 *1102:A0 *882:161 3.00829e-05
108 *1115:A2 *882:26 0.000297007
109 *1115:A2 *882:32 8.37812e-05
110 *1116:A3 *882:40 0.000106324
111 *1140:A3 *882:107 0
112 *1141:S1 *1141:S0 3.00257e-05
113 *1160:S1 *1160:S0 0.000210945
114 *1161:A0 *1161:S0 0
115 *1161:A1 *1161:S0 9.83856e-05
116 *1161:A3 *1161:S0 0
117 *1161:S1 *1161:S0 0.000522261
118 *1174:C *1050:S0 0
119 *1193:B *1100:S0 4.97926e-05
120 *1211:B *1085:S0 0.000110184
121 *1224:B *882:107 6.50586e-05
122 *1242:C *1071:S0 0.000126968
123 *1267:B *1035:S0 0
124 *1274:B *1085:S0 0
125 *1288:A *882:107 2.82583e-05
126 *1288:B *882:107 0.000115934
127 *1349:C *1126:S0 0
128 *1369:A *1050:S0 0.000632036
129 *1389:DE *1005:S0 6.56036e-05
130 *1389:DE *882:306 0
131 *1403:D *882:320 0.000149181
132 *1403:DE *882:320 0
133 *1406:D *1090:S0 0.000150716
134 *1459:D *1035:S0 9.00548e-05
135 *1464:DE *882:40 0
136 *1497:D *1065:S0 5.49079e-06
137 *1497:DE *1065:S0 3.37073e-06
138 *1562:D *1070:S0 0.00016802
139 *1581:DE *882:304 2.48274e-05
140 *1593:D *1066:S0 6.36477e-05
141 *1595:D *882:320 0.000311081
142 *1595:DE *882:304 0.000143973
143 *1595:DE *882:320 0.000185404
144 *1627:DE *1086:S0 0.000185865
145 *1629:D *1086:S0 0.000127179
146 *1657:D *1050:S0 1.20108e-05
147 *4:27 *1050:S0 0
148 *5:19 *1071:S0 1.9101e-05
149 *5:76 *1071:S0 1.67286e-05
150 *20:34 *882:107 0.000236019
151 *20:36 *882:107 1.09551e-05
152 *123:62 *882:32 0.000125375
153 *123:62 *882:34 0
154 *124:62 *882:20 0.00035868
155 *124:133 *1085:S0 0.000159576
156 *417:328 *1100:S0 0.000183886
157 *418:230 *882:107 0.00064281
158 *418:461 *1085:S0 0.000182165
159 *423:368 *1160:S0 5.17866e-05
160 *423:395 *882:196 0.000168915
161 *424:364 *1035:S0 0.000202522
162 *432:14 *1005:S0 0.000339397
163 *432:14 *882:306 3.46062e-05
164 *433:14 *1005:S0 2.02035e-05
165 *479:12 *1085:S0 0.000179286
166 *487:14 *882:304 2.65831e-05
167 *557:18 *1160:S0 4.75721e-06
168 *857:209 *882:304 4.90246e-05
169 *857:319 *1126:S0 0
170 *857:319 *1161:S0 0
171 *858:337 *1100:S0 0.00056793
172 *859:12 *882:40 0.00103563
173 *859:12 *882:42 0.000256522
174 *859:39 *1035:S0 0
175 *859:39 *882:42 0
176 *859:39 *882:44 0
177 *859:77 *882:196 0
178 *860:48 *1161:S0 0
179 *860:70 *882:34 0.000176835
180 *860:70 *882:40 0.000405204
181 *862:10 *882:40 0
182 *862:10 *882:42 0
183 *862:14 *882:42 0
184 *862:70 *1090:S0 0
185 *862:80 *1090:S0 0
186 *863:20 *882:20 0
187 *863:37 *882:20 0
188 *863:37 *882:26 0
189 *866:74 *882:304 0
190 *866:84 *882:304 0
191 *870:104 *1071:S0 0.000360883
192 *874:312 *1066:S0 0.00013638
193 *874:320 *1066:S0 0.000153578
194 *874:535 *1141:S0 0
195 *874:535 *882:107 0
196 *874:600 *882:306 0
197 *874:600 *882:320 0
198 *876:186 *1085:S0 0.000118989
199 *880:179 *1051:S0 0.000167548
200 *880:189 *1051:S0 0
201 *881:92 *1126:S0 0.000171145
202 *881:92 *1161:S0 4.32427e-05
203 *881:107 *882:161 0.000675025
204 *881:111 *882:26 0
205 *881:113 *882:32 0
206 *881:115 *882:34 0
207 *881:115 *882:40 0
208 *881:119 *882:42 0
209 *881:119 *882:44 0
210 *881:121 *882:44 0
211 *881:166 *1141:S0 0
212 *881:174 *1141:S0 0
213 *881:174 *882:107 0
214 *881:187 *1090:S0 0
215 *881:259 *1075:S0 0
216 *881:259 *882:196 0
217 *881:309 *1066:S0 0.00127561
218 *881:417 *1070:S0 0.00016802
*RES
1 *2286:X *1100:S0 27.9709 
2 *1100:S0 *882:20 24.6031 
3 *882:20 *882:26 27.6509 
4 *882:26 *882:32 11.8713 
5 *882:32 *882:34 9.30653 
6 *882:34 *882:40 28.2127 
7 *882:40 *882:42 20.1031 
8 *882:42 *882:44 20.1031 
9 *882:44 *1035:S0 17.9591 
10 *882:44 *1036:S0 4.5 
11 *882:42 *1061:S0 4.5 
12 *882:40 *1060:S0 4.5 
13 *882:34 *1116:S0 4.5 
14 *882:32 *1066:S0 21.97 
15 *882:26 *1115:S0 4.5 
16 *882:20 *1101:S0 4.5 
17 *1036:S0 *882:107 25.1871 
18 *882:107 *1140:S0 4.5 
19 *882:107 *1141:S0 11.315 
20 *1066:S0 *882:133 17.0465 
21 *882:133 *1050:S0 35.4191 
22 *882:133 *1065:S0 19.375 
23 *1101:S0 *882:161 21.7771 
24 *882:161 *1161:S0 15.0523 
25 *882:161 *1126:S0 7.57775 
26 *1050:S0 *1051:S0 25.3165 
27 *1051:S0 *882:196 33.0065 
28 *882:196 *1090:S0 37.8912 
29 *882:196 *1091:S0 4.5 
30 *1065:S0 *882:214 1.1936 
31 *882:214 *1085:S0 36.7565 
32 *882:214 *1070:S0 23.3386 
33 *1126:S0 *1160:S0 21.0358 
34 *1091:S0 *1075:S0 21.8663 
35 *1070:S0 *1071:S0 25.8823 
36 *1075:S0 *882:304 29.0294 
37 *882:304 *882:306 5.98452 
38 *882:306 *1005:S0 20.8658 
39 *882:306 *1006:S0 4.5 
40 *882:304 *882:320 20.9336 
41 *882:320 *1076:S0 4.5 
42 *882:320 *1086:S0 17.9591 
*END

*D_NET *883 0.0416833
*CONN
*I *1125:S0 I *D sky130_fd_sc_hd__mux4_2
*I *1146:S0 I *D sky130_fd_sc_hd__mux4_2
*I *1135:S0 I *D sky130_fd_sc_hd__mux4_2
*I *1026:S0 I *D sky130_fd_sc_hd__mux4_2
*I *1136:S0 I *D sky130_fd_sc_hd__mux4_2
*I *1111:S0 I *D sky130_fd_sc_hd__mux4_2
*I *1110:S0 I *D sky130_fd_sc_hd__mux4_2
*I *1046:S0 I *D sky130_fd_sc_hd__mux4_2
*I *1045:S0 I *D sky130_fd_sc_hd__mux4_2
*I *1131:S0 I *D sky130_fd_sc_hd__mux4_2
*I *1025:S0 I *D sky130_fd_sc_hd__mux4_2
*I *1130:S0 I *D sky130_fd_sc_hd__mux4_2
*I *1145:S0 I *D sky130_fd_sc_hd__mux4_2
*I *2286:A I *D sky130_fd_sc_hd__buf_12
*I *1016:S0 I *D sky130_fd_sc_hd__mux4_2
*I *1015:S0 I *D sky130_fd_sc_hd__mux4_2
*I *1151:S0 I *D sky130_fd_sc_hd__mux4_2
*I *1150:S0 I *D sky130_fd_sc_hd__mux4_2
*I *2287:X O *D sky130_fd_sc_hd__buf_12
*CAP
1 *1125:S0 0.0011254
2 *1146:S0 0.000830248
3 *1135:S0 7.80785e-05
4 *1026:S0 0.00086795
5 *1136:S0 0
6 *1111:S0 0
7 *1110:S0 0.000542236
8 *1046:S0 2.16481e-05
9 *1045:S0 0.00150159
10 *1131:S0 0.00175896
11 *1025:S0 0.00228151
12 *1130:S0 0.00105753
13 *1145:S0 0.00143333
14 *2286:A 0.000446719
15 *1016:S0 0.00102917
16 *1015:S0 0.00057067
17 *1151:S0 0.000858836
18 *1150:S0 0.000320131
19 *2287:X 0.000270465
20 *883:180 0.00126767
21 *883:157 0.00107622
22 *883:137 0.000439242
23 *883:131 0.00125672
24 *883:129 0.00108106
25 *883:127 0.00190075
26 *883:95 0.00154757
27 *883:31 0.00115245
28 *883:29 0.00118811
29 *883:6 0.000796472
30 *1025:S0 *2292:A 8.20833e-07
31 *1025:S0 *888:217 2.02035e-05
32 *1026:S0 *1607:CLK 9.08145e-05
33 *1110:S0 *1410:CLK 0.00011818
34 *1110:S0 *1634:CLK 1.77537e-06
35 *1110:S0 *889:243 3.93117e-06
36 *1110:S0 *889:267 0
37 *1125:S0 *897:98 0.000882854
38 *1130:S0 *1478:CLK 2.94898e-05
39 *1130:S0 *1478:DE 7.35086e-06
40 *1146:S0 *888:163 3.94217e-05
41 *1146:S0 *888:357 6.01598e-05
42 *2286:A *2291:A 1.03594e-05
43 *2286:A *887:10 0.000400444
44 *2286:A *887:237 0.000490055
45 *883:127 *888:25 5.22855e-05
46 *883:127 *888:34 0.000185606
47 *883:137 *889:278 6.67641e-06
48 *883:157 *889:267 0
49 *883:157 *889:278 0
50 *1015:A2 *1016:S0 0.000178994
51 *1016:A2 *1016:S0 8.23577e-05
52 *1017:A1 *1145:S0 0.000111708
53 *1025:A0 *883:127 1.25508e-05
54 *1025:S1 *1025:S0 0.000419639
55 *1027:A1 *883:127 1.6429e-05
56 *1045:A2 *1125:S0 7.86825e-06
57 *1047:A1 *1045:S0 6.5568e-05
58 *1047:S *883:131 0.00148754
59 *1110:A0 *1110:S0 2.32744e-05
60 *1112:A1 *1110:S0 4.66568e-05
61 *1125:A0 *1125:S0 0.000155352
62 *1131:A1 *1131:S0 3.5094e-05
63 *1131:A2 *1146:S0 0
64 *1131:A3 *1131:S0 0
65 *1132:A1 *1131:S0 0.000126184
66 *1132:A1 *883:95 0.000205783
67 *1132:S *1131:S0 0
68 *1132:S *883:95 0
69 *1135:A3 *1135:S0 5.22859e-05
70 *1135:A3 *883:127 1.74575e-05
71 *1145:A1 *1130:S0 0.000212651
72 *1146:A1 *1146:S0 0.000275344
73 *1193:C *1145:S0 2.05789e-05
74 *1301:B *1045:S0 0.000107496
75 *1351:B *1026:S0 6.23875e-05
76 *1391:D *1016:S0 0
77 *1410:D *1110:S0 0.000167906
78 *1414:D *1146:S0 0.000196815
79 *1478:D *1130:S0 9.52181e-06
80 *1481:D *1145:S0 0.000300318
81 *1538:D *1110:S0 0.000141864
82 *1542:DE *1146:S0 0
83 *1574:D *1130:S0 0.000124145
84 *1574:DE *1131:S0 0
85 *1575:D *883:131 0.000182179
86 *1575:D *883:180 0.000114659
87 *1583:DE *1016:S0 0
88 *1607:D *1026:S0 0.000338662
89 *1607:D *883:180 5.92342e-05
90 *1607:DE *1026:S0 1.62073e-05
91 *1621:D *883:131 0.000632771
92 *27:44 *1025:S0 4.75721e-06
93 *121:176 *1025:S0 0.000161103
94 *124:46 *1016:S0 5.28189e-05
95 *124:56 *1016:S0 0.000387657
96 *124:56 *2286:A 5.34415e-05
97 *124:56 *883:31 8.03504e-05
98 *124:226 *1131:S0 0
99 *124:232 *1025:S0 5.56072e-05
100 *126:89 *1026:S0 2.29959e-05
101 *126:89 *883:131 8.27003e-05
102 *126:89 *883:180 0.000415868
103 *126:104 *1110:S0 9.62971e-05
104 *126:104 *883:131 7.58044e-05
105 *126:104 *883:157 0.000468485
106 *126:118 *1110:S0 6.47701e-05
107 *128:20 *1150:S0 0.000729706
108 *418:418 *1130:S0 0.00013029
109 *418:443 *1125:S0 6.84497e-05
110 *423:331 *1016:S0 4.9576e-05
111 *427:366 *1131:S0 7.13655e-06
112 *448:14 *1026:S0 7.23555e-05
113 *532:16 *1131:S0 0
114 *857:27 *1150:S0 0.000196127
115 *861:86 *1026:S0 7.51256e-05
116 *864:53 *1131:S0 1.66626e-05
117 *864:67 *883:131 0.000412293
118 *864:67 *883:180 0.000345908
119 *871:19 *1016:S0 0.00024642
120 *871:21 *1016:S0 6.21109e-05
121 *871:21 *2286:A 0
122 *871:21 *883:31 4.77274e-05
123 *875:34 *1150:S0 0.00021793
124 *875:34 *883:6 0.000196862
125 *876:62 *1145:S0 0.000167558
126 *876:81 *1145:S0 1.20742e-05
127 *878:129 *1131:S0 4.09926e-05
128 *881:379 *1125:S0 0.00045114
129 *881:482 *1045:S0 0.000556187
130 *881:482 *1046:S0 2.33374e-05
131 *881:525 *1130:S0 0.000426067
*RES
1 *2287:X *883:6 16.0732 
2 *883:6 *1150:S0 22.4591 
3 *883:6 *1151:S0 4.52122 
4 *1151:S0 *883:29 18.4495 
5 *883:29 *883:31 3.07775 
6 *883:31 *1015:S0 5.139 
7 *883:31 *1016:S0 34.9844 
8 *883:29 *2286:A 28.1266 
9 *1015:S0 *1145:S0 16.6381 
10 *1145:S0 *1130:S0 30.0886 
11 *1130:S0 *883:95 8.61588 
12 *883:95 *1025:S0 12.9664 
13 *883:95 *1131:S0 27.3022 
14 *1025:S0 *883:127 27.7422 
15 *883:127 *883:129 4.5 
16 *883:129 *883:131 33.1835 
17 *883:131 *883:137 5.61141 
18 *883:137 *1045:S0 10.8389 
19 *883:137 *1046:S0 0.639 
20 *883:131 *883:157 17.404 
21 *883:157 *1110:S0 20.7857 
22 *883:157 *1111:S0 4.5 
23 *883:129 *883:180 16.3658 
24 *883:180 *1136:S0 4.5 
25 *883:180 *1026:S0 23.373 
26 *883:127 *1135:S0 1.74821 
27 *1131:S0 *1146:S0 32.6024 
28 *1045:S0 *1125:S0 22.4783 
*END

*D_NET *884 0.0420754
*CONN
*I *1559:CLK I *D sky130_fd_sc_hd__edfxtp_1
*I *1463:CLK I *D sky130_fd_sc_hd__edfxtp_1
*I *1495:CLK I *D sky130_fd_sc_hd__edfxtp_1
*I *1460:CLK I *D sky130_fd_sc_hd__edfxtp_1
*I *1556:CLK I *D sky130_fd_sc_hd__edfxtp_1
*I *1471:CLK I *D sky130_fd_sc_hd__edfxtp_1
*I *1646:CLK I *D sky130_fd_sc_hd__edfxtp_1
*I *1486:CLK I *D sky130_fd_sc_hd__edfxtp_1
*I *1550:CLK I *D sky130_fd_sc_hd__edfxtp_1
*I *1552:CLK I *D sky130_fd_sc_hd__edfxtp_1
*I *1456:CLK I *D sky130_fd_sc_hd__edfxtp_1
*I *1584:CLK I *D sky130_fd_sc_hd__edfxtp_1
*I *1648:CLK I *D sky130_fd_sc_hd__edfxtp_1
*I *1488:CLK I *D sky130_fd_sc_hd__edfxtp_1
*I *1507:CLK I *D sky130_fd_sc_hd__edfxtp_1
*I *1454:CLK I *D sky130_fd_sc_hd__edfxtp_1
*I *1518:CLK I *D sky130_fd_sc_hd__edfxtp_1
*I *1407:CLK I *D sky130_fd_sc_hd__edfxtp_1
*I *1631:CLK I *D sky130_fd_sc_hd__edfxtp_1
*I *1535:CLK I *D sky130_fd_sc_hd__edfxtp_1
*I *1643:CLK I *D sky130_fd_sc_hd__edfxtp_1
*I *1547:CLK I *D sky130_fd_sc_hd__edfxtp_1
*I *1611:CLK I *D sky130_fd_sc_hd__edfxtp_1
*I *1599:CLK I *D sky130_fd_sc_hd__edfxtp_1
*I *1567:CLK I *D sky130_fd_sc_hd__edfxtp_1
*I *1483:CLK I *D sky130_fd_sc_hd__edfxtp_1
*I *1579:CLK I *D sky130_fd_sc_hd__edfxtp_1
*I *1515:CLK I *D sky130_fd_sc_hd__edfxtp_1
*I *1503:CLK I *D sky130_fd_sc_hd__edfxtp_1
*I *1663:CLK I *D sky130_fd_sc_hd__edfxtp_1
*I *2288:X O *D sky130_fd_sc_hd__clkbuf_8
*CAP
1 *1559:CLK 2.28463e-05
2 *1463:CLK 0.000304125
3 *1495:CLK 7.36971e-05
4 *1460:CLK 0
5 *1556:CLK 8.71272e-05
6 *1471:CLK 0
7 *1646:CLK 0
8 *1486:CLK 0
9 *1550:CLK 3.74818e-05
10 *1552:CLK 4.60226e-05
11 *1456:CLK 0
12 *1584:CLK 0.000323295
13 *1648:CLK 0.00046451
14 *1488:CLK 0
15 *1507:CLK 0.00094018
16 *1454:CLK 0
17 *1518:CLK 0.0004443
18 *1407:CLK 0
19 *1631:CLK 0.000189005
20 *1535:CLK 0.0008485
21 *1643:CLK 5.55396e-05
22 *1547:CLK 0.000706269
23 *1611:CLK 0.000326593
24 *1599:CLK 8.84013e-05
25 *1567:CLK 0
26 *1483:CLK 0
27 *1579:CLK 0.000186015
28 *1515:CLK 0.000103096
29 *1503:CLK 0.000123228
30 *1663:CLK 0.00026416
31 *2288:X 0.000270889
32 *884:354 0.000557206
33 *884:339 0.000669465
34 *884:330 0.000465786
35 *884:319 0.000447778
36 *884:268 0.000595917
37 *884:260 0.000596873
38 *884:245 0.000828787
39 *884:236 0.000158144
40 *884:223 0.0011077
41 *884:214 0.000330917
42 *884:210 0.00061441
43 *884:202 0.000519461
44 *884:189 0.000750393
45 *884:185 0.000684583
46 *884:123 0.00112148
47 *884:117 0.000399264
48 *884:100 0.00041683
49 *884:98 0.00108369
50 *884:92 0.000397629
51 *884:90 0.00089821
52 *884:86 0.00140797
53 *884:50 0.000375107
54 *884:48 0.000427654
55 *884:33 0.000709062
56 *884:31 0.000363586
57 *884:29 0.000216172
58 *884:27 0.000241007
59 *884:14 0.00078947
60 *884:8 0.00091235
61 *884:14 *904:26 0.000280726
62 *884:319 *904:26 0.000724152
63 *884:330 *904:26 0.000357474
64 *884:339 *904:26 2.20021e-05
65 *1096:A0 *884:90 3.10797e-05
66 *1097:A0 *884:31 0
67 *1159:A1 *1547:CLK 2.16355e-05
68 *1175:A *884:354 3.12828e-05
69 *1183:A *884:185 2.37827e-05
70 *1183:B *1518:CLK 0
71 *1183:B *884:185 1.65872e-05
72 *1183:B *884:189 0
73 *1183:C *884:185 0.000569001
74 *1219:B *1507:CLK 0.000216458
75 *1262:C *1550:CLK 0.000159917
76 *1262:C *884:210 0.000127431
77 *1264:A *1507:CLK 4.53208e-05
78 *1264:A *884:223 8.52652e-05
79 *1264:A *884:236 0.000146609
80 *1264:A *884:245 0.000190214
81 *1264:A *884:260 0.000184911
82 *1271:B *1559:CLK 2.84892e-05
83 *1271:B *884:354 6.03358e-05
84 *1271:C *884:354 4.55234e-05
85 *1367:A *884:339 0.000116786
86 *1407:D *884:90 0.000173185
87 *1407:D *884:92 0.000200228
88 *1407:D *884:98 6.50727e-05
89 *1407:DE *884:90 3.44641e-05
90 *1430:D *1547:CLK 0.000169347
91 *1451:D *1547:CLK 2.86013e-06
92 *1456:D *884:268 4.05936e-05
93 *1456:DE *1584:CLK 0.000267404
94 *1456:DE *884:268 6.36477e-05
95 *1460:D *884:319 0.000514035
96 *1460:D *884:330 0.00033857
97 *1463:D *1463:CLK 0.000100071
98 *1471:D *884:185 0.000544007
99 *1486:D *884:189 0
100 *1486:D *884:202 0.000118166
101 *1486:D *884:210 0.000119584
102 *1488:D *884:268 0
103 *1488:DE *1507:CLK 0.000123665
104 *1492:D *884:339 5.12093e-05
105 *1503:D *1503:CLK 6.36477e-05
106 *1503:D *884:33 0
107 *1507:D *1507:CLK 6.22703e-05
108 *1515:DE *1515:CLK 6.08467e-05
109 *1535:D *1535:CLK 9.38699e-06
110 *1535:DE *1535:CLK 2.90638e-06
111 *1547:D *1611:CLK 0
112 *1550:D *1550:CLK 2.29454e-05
113 *1559:D *1559:CLK 9.91783e-05
114 *1559:D *884:354 0.00016386
115 *1599:D *1631:CLK 5.05252e-05
116 *1631:D *1631:CLK 9.83892e-05
117 *1648:D *1648:CLK 0.000133144
118 *1648:DE *1648:CLK 3.42041e-05
119 *1655:D *884:339 0.000298617
120 *1655:D *884:354 0.000214474
121 *1655:DE *884:339 6.40445e-05
122 *1663:D *1663:CLK 5.0402e-05
123 *2272:A *884:185 5.85071e-05
124 *2:45 *884:339 0.000208518
125 *2:67 *884:339 8.62625e-06
126 *2:67 *884:354 0.000343384
127 *12:36 *884:210 8.85643e-05
128 *12:48 *1518:CLK 0
129 *69:206 *1552:CLK 3.96696e-05
130 *69:206 *884:260 0.000190367
131 *70:44 *884:27 0.000265361
132 *70:57 *884:27 3.20264e-05
133 *70:57 *884:29 0.000198334
134 *70:57 *884:31 0.000193169
135 *70:57 *884:33 0.000350545
136 *70:57 *884:48 0.000725975
137 *70:63 *1515:CLK 0.000182729
138 *70:63 *884:48 3.31733e-05
139 *70:63 *884:50 0.000182246
140 *123:10 *1463:CLK 0
141 *123:16 *1463:CLK 0
142 *127:20 *1463:CLK 0
143 *127:20 *884:354 6.27782e-05
144 *127:47 *1631:CLK 0
145 *417:153 *1631:CLK 3.60268e-05
146 *417:153 *884:92 0.000110306
147 *417:153 *884:98 0.000107496
148 *417:183 *1611:CLK 6.68103e-05
149 *419:61 *1631:CLK 2.41759e-05
150 *419:81 *1599:CLK 4.19247e-05
151 *419:81 *1611:CLK 0.000262537
152 *419:81 *884:98 5.60061e-05
153 *419:81 *884:100 3.97254e-05
154 *419:81 *884:117 0.000695261
155 *419:81 *884:123 7.65861e-05
156 *419:89 *1611:CLK 0.000101528
157 *419:95 *1611:CLK 0.000239575
158 *424:51 *1463:CLK 0
159 *424:51 *884:354 6.14756e-06
160 *424:53 *884:330 1.2693e-05
161 *424:53 *884:339 0.00017428
162 *424:53 *884:354 5.94249e-05
163 *424:61 *884:319 1.77085e-05
164 *424:67 *884:14 0.000257345
165 *424:67 *884:319 0.000185846
166 *424:89 *884:48 0.00025389
167 *424:99 *1579:CLK 3.82228e-05
168 *424:99 *884:48 0.000103202
169 *424:99 *884:50 0.00013262
170 *424:223 *1556:CLK 6.50727e-05
171 *424:234 *884:268 0.0001376
172 *437:24 *1503:CLK 1.78942e-05
173 *553:14 *1547:CLK 0.000269531
174 *553:14 *1643:CLK 0.000152878
175 *553:14 *884:123 0.000111722
176 *857:39 *1584:CLK 0
177 *857:39 *884:268 3.88213e-05
178 *857:45 *884:214 0.000148688
179 *857:45 *884:223 7.41203e-05
180 *857:45 *884:268 0
181 *857:363 *1631:CLK 0.000366326
182 *857:363 *884:98 0.000137879
183 *857:363 *884:100 7.44184e-05
184 *857:363 *884:117 6.34651e-06
185 *857:365 *884:117 0.000321592
186 *858:165 *884:189 3.12828e-05
187 *858:183 *1663:CLK 6.91232e-06
188 *858:183 *884:14 3.24972e-05
189 *858:197 *1663:CLK 9.22151e-06
190 *858:197 *884:31 0
191 *858:197 *884:33 0
192 *858:197 *884:48 0
193 *858:197 *884:50 0
194 *858:213 *1515:CLK 0.00019042
195 *858:213 *884:50 1.10793e-05
196 *865:57 *884:27 0.000110689
197 *865:168 *884:202 0.000167553
198 *865:336 *1507:CLK 0.00032277
199 *868:10 *884:185 8.90486e-05
200 *869:16 *1611:CLK 0
201 *869:16 *884:123 0
202 *869:44 *1611:CLK 0.000302423
203 *873:80 *884:210 0.000107451
204 *873:91 *1550:CLK 8.56014e-05
205 *873:91 *884:210 7.20028e-05
206 *874:40 *1584:CLK 2.59855e-05
207 *874:44 *1584:CLK 0.000130051
208 *874:44 *884:268 0
209 *874:54 *884:236 1.19576e-05
210 *874:54 *884:245 4.74853e-05
211 *874:54 *884:260 6.84895e-05
212 *874:56 *884:214 3.5094e-05
213 *874:56 *884:223 7.54417e-05
214 *874:56 *884:236 2.32176e-05
215 *874:58 *884:214 6.21224e-05
216 *874:75 *1518:CLK 0
217 *877:21 *884:268 3.82525e-05
*RES
1 *2288:X *884:8 19.464 
2 *884:8 *884:14 13.8444 
3 *884:14 *1663:CLK 13.7342 
4 *884:14 *884:27 10.0693 
5 *884:27 *884:29 3.493 
6 *884:29 *884:31 3.493 
7 *884:31 *884:33 6.6074 
8 *884:33 *1503:CLK 16.7076 
9 *884:33 *884:48 13.6667 
10 *884:48 *884:50 3.493 
11 *884:50 *1515:CLK 17.9655 
12 *884:50 *1579:CLK 17.8002 
13 *884:48 *1483:CLK 13.7491 
14 *884:31 *1567:CLK 13.7491 
15 *884:29 *884:86 4.5 
16 *884:86 *884:90 19.604 
17 *884:90 *884:92 2.38721 
18 *884:92 *884:98 10.1015 
19 *884:98 *884:100 2.87013 
20 *884:100 *1599:CLK 16.1458 
21 *884:100 *884:117 17.3362 
22 *884:117 *884:123 7.19474 
23 *884:123 *1611:CLK 25.9624 
24 *884:123 *1547:CLK 35.1481 
25 *884:117 *1643:CLK 11.0817 
26 *884:98 *1535:CLK 25.9987 
27 *884:92 *1631:CLK 25.0642 
28 *884:90 *1407:CLK 9.24915 
29 *884:86 *884:185 17.3856 
30 *884:185 *884:189 7.57775 
31 *884:189 *1518:CLK 23.8862 
32 *884:189 *884:202 10.7694 
33 *884:202 *884:210 20.0054 
34 *884:210 *884:214 11.315 
35 *884:214 *1454:CLK 13.7491 
36 *884:214 *884:223 4.32351 
37 *884:223 *1507:CLK 37.2354 
38 *884:223 *884:236 2.6625 
39 *884:236 *1488:CLK 13.7491 
40 *884:236 *884:245 3.493 
41 *884:245 *1648:CLK 24.4554 
42 *884:245 *884:260 13.1532 
43 *884:260 *884:268 16.9537 
44 *884:268 *1584:CLK 27.5907 
45 *884:268 *1456:CLK 9.24915 
46 *884:260 *1552:CLK 10.5271 
47 *884:210 *1550:CLK 11.6364 
48 *884:202 *1486:CLK 9.24915 
49 *884:185 *1646:CLK 9.24915 
50 *884:27 *1471:CLK 13.7491 
51 *884:8 *884:319 13.4591 
52 *884:319 *1556:CLK 15.5817 
53 *884:319 *884:330 6.39977 
54 *884:330 *1460:CLK 13.7491 
55 *884:330 *884:339 13.4591 
56 *884:339 *1495:CLK 15.0271 
57 *884:339 *884:354 14.8114 
58 *884:354 *1463:CLK 25.0642 
59 *884:354 *1559:CLK 10.5271 
*END

*D_NET *885 0.0155921
*CONN
*I *1524:CLK I *D sky130_fd_sc_hd__edfxtp_1
*I *1620:CLK I *D sky130_fd_sc_hd__edfxtp_1
*I *1396:CLK I *D sky130_fd_sc_hd__edfxtp_1
*I *1588:CLK I *D sky130_fd_sc_hd__edfxtp_1
*I *1655:CLK I *D sky130_fd_sc_hd__edfxtp_1
*I *1652:CLK I *D sky130_fd_sc_hd__edfxtp_1
*I *1492:CLK I *D sky130_fd_sc_hd__edfxtp_1
*I *2307:A I *D sky130_fd_sc_hd__inv_16
*I *1591:CLK I *D sky130_fd_sc_hd__edfxtp_1
*I *1623:CLK I *D sky130_fd_sc_hd__edfxtp_1
*I *1527:CLK I *D sky130_fd_sc_hd__edfxtp_1
*I *1399:CLK I *D sky130_fd_sc_hd__edfxtp_1
*I *2289:X O *D sky130_fd_sc_hd__clkbuf_8
*CAP
1 *1524:CLK 0.000347358
2 *1620:CLK 0.000187686
3 *1396:CLK 0
4 *1588:CLK 0.00029742
5 *1655:CLK 0.000413579
6 *1652:CLK 0
7 *1492:CLK 0.000121845
8 *2307:A 0.000293855
9 *1591:CLK 0.000345992
10 *1623:CLK 7.08525e-05
11 *1527:CLK 0.00116777
12 *1399:CLK 0
13 *2289:X 0
14 *885:143 0.000644513
15 *885:135 0.000628522
16 *885:133 0.000532203
17 *885:89 0.000554153
18 *885:68 0.000929777
19 *885:66 0.000949617
20 *885:34 0.000597046
21 *885:19 0.00145404
22 *885:10 0.000554295
23 *885:4 0.000689557
24 *979:C *1588:CLK 2.45203e-05
25 *1041:A1 *885:89 5.21758e-06
26 *1042:A0 *885:89 0.000118166
27 *1042:A1 *885:89 2.91891e-05
28 *1042:S *885:89 0.000216458
29 *1056:A0 *1655:CLK 9.60366e-05
30 *1056:A2 *1527:CLK 5.51617e-05
31 *1056:S0 *1655:CLK 0.000172531
32 *1396:D *1588:CLK 0.000267404
33 *1396:D *885:143 3.84612e-05
34 *1524:DE *1524:CLK 3.39728e-05
35 *1527:D *1527:CLK 0.000194465
36 *1588:D *885:143 0
37 *1591:D *1591:CLK 0.000138955
38 *1591:DE *1591:CLK 0.000173578
39 *1623:D *1623:CLK 6.64392e-05
40 *1652:D *1492:CLK 0.000365108
41 *69:41 *1655:CLK 0.00031827
42 *69:47 *1655:CLK 0
43 *69:47 *885:68 0
44 *69:47 *885:89 0
45 *70:40 *1492:CLK 8.03393e-06
46 *70:40 *1655:CLK 0
47 *70:40 *885:68 0
48 *70:40 *885:89 0
49 *70:44 *1492:CLK 0.000340492
50 *127:39 *885:135 8.36586e-06
51 *127:39 *885:143 9.32095e-05
52 *127:45 *885:143 0.000377924
53 *276:12 *1524:CLK 0.000189386
54 *417:109 *1524:CLK 0
55 *417:109 *885:135 0
56 *417:109 *885:143 0
57 *417:121 *1588:CLK 0.000238107
58 *417:121 *885:143 0
59 *419:28 *1588:CLK 1.03403e-05
60 *419:39 *1588:CLK 7.92757e-06
61 *419:61 *1588:CLK 4.48391e-05
62 *427:41 *1588:CLK 0.000341403
63 *461:12 *1620:CLK 5.52748e-05
64 *461:12 *885:89 6.52301e-05
65 *856:24 *1524:CLK 8.4464e-05
66 *856:28 *1524:CLK 5.44672e-05
67 *857:353 *1524:CLK 6.34821e-05
68 *857:353 *885:10 8.67371e-05
69 *857:353 *885:19 5.82465e-05
70 *857:353 *885:34 9.33938e-05
71 *857:353 *885:135 5.70255e-05
72 *873:14 *1591:CLK 0.000219784
73 *873:16 *885:34 0
74 *873:24 *885:10 0
*RES
1 *2289:X *885:4 9.24915 
2 *885:4 *885:10 14.817 
3 *885:10 *1399:CLK 13.7491 
4 *885:10 *885:19 2.6625 
5 *885:19 *1527:CLK 31.5447 
6 *885:19 *885:34 4.84868 
7 *885:34 *1623:CLK 15.584 
8 *885:34 *1591:CLK 24.2682 
9 *885:4 *885:66 10.217 
10 *885:66 *885:68 6.6074 
11 *885:68 *2307:A 18.5571 
12 *885:68 *885:89 16.6387 
13 *885:89 *1492:CLK 24.6489 
14 *885:89 *1652:CLK 9.24915 
15 *885:66 *1655:CLK 26.6301 
16 *2307:A *885:133 15.5817 
17 *885:133 *885:135 2.6625 
18 *885:135 *885:143 14.2781 
19 *885:143 *1588:CLK 29.2545 
20 *885:143 *1396:CLK 9.24915 
21 *885:135 *1620:CLK 17.125 
22 *885:133 *1524:CLK 23.6509 
*END

*D_NET *886 0.0319809
*CONN
*I *919:CLK I *D sky130_fd_sc_hd__dfxtp_1
*I *920:CLK I *D sky130_fd_sc_hd__dfxtp_1
*I *1386:CLK I *D sky130_fd_sc_hd__edfxtp_1
*I *1482:CLK I *D sky130_fd_sc_hd__edfxtp_1
*I *1519:CLK I *D sky130_fd_sc_hd__edfxtp_1
*I *1647:CLK I *D sky130_fd_sc_hd__edfxtp_1
*I *1487:CLK I *D sky130_fd_sc_hd__edfxtp_1
*I *1514:CLK I *D sky130_fd_sc_hd__edfxtp_1
*I *1578:CLK I *D sky130_fd_sc_hd__edfxtp_1
*I *1610:CLK I *D sky130_fd_sc_hd__edfxtp_1
*I *1418:CLK I *D sky130_fd_sc_hd__edfxtp_1
*I *916:CLK I *D sky130_fd_sc_hd__dfxtp_1
*I *917:CLK I *D sky130_fd_sc_hd__dfxtp_1
*I *915:CLK I *D sky130_fd_sc_hd__dfxtp_1
*I *921:CLK I *D sky130_fd_sc_hd__dfxtp_1
*I *918:CLK I *D sky130_fd_sc_hd__dfxtp_1
*I *922:CLK I *D sky130_fd_sc_hd__dfxtp_1
*I *1719:CLK I *D sky130_fd_sc_hd__dfxtp_1
*I *1718:CLK I *D sky130_fd_sc_hd__dfxtp_1
*I *1716:CLK I *D sky130_fd_sc_hd__dfxtp_1
*I *1717:CLK I *D sky130_fd_sc_hd__dfxtp_1
*I *2308:A I *D sky130_fd_sc_hd__inv_8
*I *2290:X O *D sky130_fd_sc_hd__clkbuf_8
*CAP
1 *919:CLK 0
2 *920:CLK 0.00031132
3 *1386:CLK 0.000506291
4 *1482:CLK 0
5 *1519:CLK 0.000525969
6 *1647:CLK 0
7 *1487:CLK 0.000159626
8 *1514:CLK 0.000629601
9 *1578:CLK 0
10 *1610:CLK 0
11 *1418:CLK 0.000357692
12 *916:CLK 0.000596079
13 *917:CLK 0.000291816
14 *915:CLK 5.86929e-05
15 *921:CLK 0
16 *918:CLK 0.000133632
17 *922:CLK 2.26558e-05
18 *1719:CLK 0
19 *1718:CLK 5.50333e-05
20 *1716:CLK 0
21 *1717:CLK 0.000134738
22 *2308:A 0.000327843
23 *2290:X 9.28069e-05
24 *886:239 0.000664477
25 *886:228 0.00092579
26 *886:182 0.000685659
27 *886:176 0.000499626
28 *886:172 0.000882424
29 *886:170 0.00100307
30 *886:164 0.000499763
31 *886:156 0.000989911
32 *886:154 0.000589431
33 *886:152 0.000198772
34 *886:123 0.00102134
35 *886:110 0.000347273
36 *886:53 0.000382064
37 *886:49 0.00057263
38 *886:43 0.00142821
39 *886:33 0.0013392
40 *886:25 0.000626322
41 *886:23 0.000659197
42 *886:19 0.00080025
43 *886:8 0.000541877
44 *1418:CLK *906:10 0.000299796
45 *1514:CLK *1482:DE 1.03403e-05
46 *1514:CLK *906:10 0
47 *1519:CLK *887:293 0
48 *886:170 *1482:DE 2.90638e-06
49 *886:172 *1482:DE 6.65668e-05
50 *886:172 *906:10 0
51 *886:182 *906:10 0
52 *886:228 *1482:DE 7.0698e-05
53 *886:228 *906:37 0.00124307
54 *886:239 *887:293 0
55 *907:A *886:19 0
56 *907:A *886:110 0
57 *907:A *886:123 0
58 *907:B *916:CLK 9.2841e-05
59 *909:B *917:CLK 0.000169057
60 *910:B *886:25 0.000986681
61 *910:B *886:33 0.000162739
62 *912:B *916:CLK 0.000633626
63 *913:B *917:CLK 0.000561132
64 *917:D *917:CLK 0.000144232
65 *918:D *918:CLK 3.90891e-05
66 *920:D *916:CLK 0.000110258
67 *921:D *886:23 6.54102e-05
68 *922:D *918:CLK 4.19412e-05
69 *922:D *886:33 0
70 *1150:A1 *886:228 4.96348e-05
71 *1150:A3 *1514:CLK 1.74529e-05
72 *1290:C *1386:CLK 1.43848e-05
73 *1327:C *1519:CLK 0.000691168
74 *1359:A *886:228 0.000242975
75 *1386:D *1386:CLK 5.34249e-06
76 *1386:DE *1386:CLK 8.81676e-05
77 *1386:DE *886:156 3.45222e-05
78 *1386:DE *886:164 7.02831e-05
79 *1482:D *886:170 6.37652e-06
80 *1482:D *886:172 1.04617e-05
81 *1482:D *886:176 0.000152214
82 *1514:D *1514:CLK 0.000136084
83 *1514:DE *1514:CLK 3.42041e-05
84 *1578:D *886:164 0.000120596
85 *1578:D *886:176 5.80109e-06
86 *1610:DE *1418:CLK 7.8414e-06
87 *1685:C *886:25 0.000313495
88 *1702:B *886:43 0.000656479
89 *1702:C *886:43 0.000488784
90 *1707:B1 *1717:CLK 8.07794e-05
91 *1710:B *1718:CLK 0.000188943
92 *1710:B *886:49 2.95757e-05
93 *1715:A2 *886:53 6.08467e-05
94 *1716:D *886:53 6.54102e-05
95 *1718:D *886:49 2.00987e-05
96 *1719:D *886:43 3.67984e-05
97 *23:27 *1487:CLK 0
98 *69:414 *920:CLK 2.23124e-05
99 *78:8 *922:CLK 4.87439e-05
100 *78:8 *886:43 4.24726e-05
101 *79:12 *886:23 0.000198176
102 *79:12 *886:25 5.03285e-05
103 *80:14 *918:CLK 0
104 *80:14 *922:CLK 2.75805e-05
105 *80:14 *886:33 0.000177772
106 *80:14 *886:43 6.50727e-05
107 *83:30 *920:CLK 5.0878e-05
108 *83:34 *920:CLK 6.73741e-05
109 *83:34 *886:156 9.3491e-05
110 *83:44 *886:156 7.51886e-05
111 *83:44 *886:164 6.18909e-05
112 *84:10 *886:49 0.000148144
113 *84:77 *1718:CLK 0.000197569
114 *84:77 *886:49 4.33979e-05
115 *85:6 *886:49 3.6455e-05
116 *85:25 *886:49 8.52652e-05
117 *86:107 *886:43 0.000428168
118 *86:118 *886:43 0.000200728
119 *101:14 *920:CLK 0.000287527
120 *101:14 *886:152 6.27718e-05
121 *122:29 *886:164 0.000138938
122 *122:29 *886:176 5.60291e-06
123 *122:29 *886:182 9.97838e-05
124 *124:27 *886:182 0
125 *124:46 *886:176 0
126 *362:14 *1418:CLK 4.65119e-05
127 *362:14 *886:182 0.00016553
128 *422:16 *2308:A 0
129 *423:12 *886:152 6.08467e-05
130 *427:245 *886:8 5.66878e-05
131 *428:16 *886:156 0
132 *847:22 *886:43 0.000109331
133 *849:14 *886:53 0.000253916
134 *851:14 *886:43 0.00041102
135 *857:27 *1418:CLK 9.87198e-05
136 *872:37 *1519:CLK 0.000757348
137 *875:34 *1418:CLK 7.04127e-05
138 *879:12 *886:152 4.47179e-05
139 *879:14 *886:156 0
140 *879:16 *886:156 0
141 *880:12 *1487:CLK 0
*RES
1 *2290:X *886:8 16.1364 
2 *886:8 *2308:A 16.4116 
3 *886:8 *886:19 7.23027 
4 *886:19 *886:23 14.0971 
5 *886:23 *886:25 12.9247 
6 *886:25 *886:33 13.9104 
7 *886:33 *886:43 33.9514 
8 *886:43 *886:49 12.5986 
9 *886:49 *886:53 10.7694 
10 *886:53 *1717:CLK 22.0503 
11 *886:53 *1716:CLK 9.24915 
12 *886:49 *1718:CLK 17.2421 
13 *886:43 *1719:CLK 9.24915 
14 *886:33 *922:CLK 10.5271 
15 *886:25 *918:CLK 21.7421 
16 *886:23 *921:CLK 9.24915 
17 *886:19 *886:110 3.493 
18 *886:110 *915:CLK 15.0271 
19 *886:110 *886:123 7.57775 
20 *886:123 *917:CLK 20.7029 
21 *886:123 *916:CLK 24.971 
22 *2308:A *886:152 14.4335 
23 *886:152 *886:154 4.5 
24 *886:154 *886:156 7.64553 
25 *886:156 *886:164 11.3714 
26 *886:164 *886:170 8.98505 
27 *886:170 *886:172 2.03962 
28 *886:172 *886:176 4.84868 
29 *886:176 *886:182 13.1476 
30 *886:182 *1418:CLK 27.7489 
31 *886:182 *1610:CLK 9.24915 
32 *886:176 *1578:CLK 13.7491 
33 *886:172 *1514:CLK 27.4677 
34 *886:170 *886:228 31.1059 
35 *886:228 *1487:CLK 17.2421 
36 *886:228 *886:239 3.07775 
37 *886:239 *1647:CLK 13.7491 
38 *886:239 *1519:CLK 33.8522 
39 *886:164 *1482:CLK 9.24915 
40 *886:156 *1386:CLK 21.5618 
41 *886:154 *920:CLK 22.0003 
42 *886:152 *919:CLK 9.24915 
*END

*D_NET *887 0.0439101
*CONN
*I *1481:CLK I *D sky130_fd_sc_hd__edfxtp_1
*I *1609:CLK I *D sky130_fd_sc_hd__edfxtp_1
*I *1641:CLK I *D sky130_fd_sc_hd__edfxtp_1
*I *1545:CLK I *D sky130_fd_sc_hd__edfxtp_1
*I *1417:CLK I *D sky130_fd_sc_hd__edfxtp_1
*I *1513:CLK I *D sky130_fd_sc_hd__edfxtp_1
*I *1385:CLK I *D sky130_fd_sc_hd__edfxtp_1
*I *1455:CLK I *D sky130_fd_sc_hd__edfxtp_1
*I *1615:CLK I *D sky130_fd_sc_hd__edfxtp_1
*I *1391:CLK I *D sky130_fd_sc_hd__edfxtp_1
*I *1583:CLK I *D sky130_fd_sc_hd__edfxtp_1
*I *1551:CLK I *D sky130_fd_sc_hd__edfxtp_1
*I *1577:CLK I *D sky130_fd_sc_hd__edfxtp_1
*I *1472:CLK I *D sky130_fd_sc_hd__edfxtp_1
*I *1664:CLK I *D sky130_fd_sc_hd__edfxtp_1
*I *1408:CLK I *D sky130_fd_sc_hd__edfxtp_1
*I *1632:CLK I *D sky130_fd_sc_hd__edfxtp_1
*I *1536:CLK I *D sky130_fd_sc_hd__edfxtp_1
*I *1642:CLK I *D sky130_fd_sc_hd__edfxtp_1
*I *1546:CLK I *D sky130_fd_sc_hd__edfxtp_1
*I *1616:CLK I *D sky130_fd_sc_hd__edfxtp_1
*I *1520:CLK I *D sky130_fd_sc_hd__edfxtp_1
*I *1392:CLK I *D sky130_fd_sc_hd__edfxtp_1
*I *1600:CLK I *D sky130_fd_sc_hd__edfxtp_1
*I *1379:CLK I *D sky130_fd_sc_hd__edfxtp_1
*I *1504:CLK I *D sky130_fd_sc_hd__edfxtp_1
*I *1568:CLK I *D sky130_fd_sc_hd__edfxtp_1
*I *1637:CLK I *D sky130_fd_sc_hd__edfxtp_1
*I *1541:CLK I *D sky130_fd_sc_hd__edfxtp_1
*I *1605:CLK I *D sky130_fd_sc_hd__edfxtp_1
*I *2291:X O *D sky130_fd_sc_hd__clkbuf_8
*CAP
1 *1481:CLK 0.00050079
2 *1609:CLK 0.000217801
3 *1641:CLK 0.000411944
4 *1545:CLK 0
5 *1417:CLK 0.000125255
6 *1513:CLK 2.69325e-05
7 *1385:CLK 0
8 *1455:CLK 0
9 *1615:CLK 0.000258931
10 *1391:CLK 9.48407e-05
11 *1583:CLK 0
12 *1551:CLK 0
13 *1577:CLK 0
14 *1472:CLK 0.000200524
15 *1664:CLK 2.95002e-05
16 *1408:CLK 0.000264376
17 *1632:CLK 0
18 *1536:CLK 0
19 *1642:CLK 0.000122972
20 *1546:CLK 0.000450346
21 *1616:CLK 0.000323032
22 *1520:CLK 2.19858e-05
23 *1392:CLK 0.000205092
24 *1600:CLK 0.000246565
25 *1379:CLK 0.000361813
26 *1504:CLK 0.000310609
27 *1568:CLK 0
28 *1637:CLK 0.000143802
29 *1541:CLK 0
30 *1605:CLK 0.000293568
31 *2291:X 0
32 *887:371 0.000712524
33 *887:362 0.000353641
34 *887:351 0.000906994
35 *887:340 0.000717336
36 *887:306 0.000593041
37 *887:293 0.000740131
38 *887:287 0.000909645
39 *887:272 0.00100134
40 *887:262 0.000710768
41 *887:258 0.000655435
42 *887:248 0.0010582
43 *887:237 0.000840447
44 *887:191 0.000469358
45 *887:156 0.000845871
46 *887:143 0.000670729
47 *887:132 0.000249446
48 *887:119 0.000697155
49 *887:113 0.000339748
50 *887:93 0.000864133
51 *887:91 0.000643809
52 *887:81 0.000836821
53 *887:79 0.00059925
54 *887:62 0.0012131
55 *887:24 0.000378693
56 *887:20 0.00162162
57 *887:14 0.0015769
58 *887:12 0.000827024
59 *887:10 0.000717679
60 *887:4 0.00109159
61 *887:10 *2291:A 1.40151e-05
62 *887:287 *906:37 2.7191e-05
63 *887:293 *906:37 4.47179e-05
64 *968:A *887:258 6.08467e-05
65 *996:A *1605:CLK 0.000159661
66 *1017:S *887:340 0.000251167
67 *1017:S *887:351 0.000154089
68 *1022:A0 *887:91 5.67796e-06
69 *1193:A *887:258 7.14746e-05
70 *1193:A *887:340 0
71 *1193:B *887:237 6.39615e-05
72 *1193:B *887:248 4.74259e-05
73 *1225:A *887:258 1.92172e-05
74 *1225:B *1481:CLK 1.33284e-05
75 *1257:B *1641:CLK 0.000377245
76 *1257:C *1641:CLK 4.26946e-05
77 *1263:B *887:272 1.88014e-05
78 *1317:C *1605:CLK 0
79 *1317:C *887:24 0
80 *1327:C *1615:CLK 0
81 *1344:B *1408:CLK 5.04829e-06
82 *1359:A *887:293 6.27718e-05
83 *1376:A *887:79 3.56492e-05
84 *1385:D *887:258 3.20108e-05
85 *1385:D *887:340 7.50872e-05
86 *1391:DE *1391:CLK 5.04829e-06
87 *1392:D *1392:CLK 4.15418e-05
88 *1392:DE *887:132 3.69704e-05
89 *1408:D *1408:CLK 0.000203756
90 *1455:D *887:272 7.17956e-05
91 *1455:D *887:287 9.83372e-05
92 *1472:D *1472:CLK 9.12033e-06
93 *1472:D *887:10 0.000117018
94 *1472:DE *887:10 2.02035e-05
95 *1504:D *1504:CLK 3.37313e-05
96 *1504:D *887:79 9.99655e-05
97 *1504:DE *1504:CLK 2.1048e-05
98 *1513:D *887:340 3.03964e-05
99 *1519:CLK *887:293 0
100 *1519:D *1615:CLK 0
101 *1520:D *1520:CLK 6.50586e-05
102 *1536:DE *887:119 4.66492e-05
103 *1545:D *887:362 3.44412e-06
104 *1545:D *887:371 4.54832e-05
105 *1546:D *1546:CLK 3.6886e-05
106 *1546:DE *1546:CLK 7.42378e-05
107 *1577:D *887:237 3.12828e-05
108 *1577:D *887:248 0.000492339
109 *1600:D *1600:CLK 0.000222149
110 *1615:D *1615:CLK 4.31703e-05
111 *1616:D *1616:CLK 2.11976e-05
112 *1616:DE *1616:CLK 3.61132e-05
113 *1632:D *1408:CLK 0.00015545
114 *1637:DE *1637:CLK 0.000138943
115 *1637:DE *887:20 0.000341586
116 *1642:D *1642:CLK 6.50586e-05
117 *1664:D *1664:CLK 6.27718e-05
118 *1664:D *887:79 0.000292628
119 *2286:A *887:10 0.000400444
120 *2286:A *887:237 0.000490055
121 *11:61 *887:91 1.46079e-05
122 *17:51 *1605:CLK 2.06598e-05
123 *17:51 *887:24 0.000113104
124 *21:27 *1609:CLK 0.00015409
125 *21:33 *1609:CLK 4.43174e-05
126 *21:33 *887:362 0.000140951
127 *21:33 *887:371 0.000187946
128 *21:37 *887:351 0
129 *21:37 *887:362 0
130 *21:41 *887:340 0
131 *21:41 *887:351 0
132 *21:45 *887:258 0.000103983
133 *23:21 *1615:CLK 0.000381983
134 *23:21 *887:293 8.59422e-05
135 *23:21 *887:306 0.000302934
136 *23:25 *887:293 0.000252043
137 *23:27 *887:287 0
138 *121:42 *887:79 0
139 *121:80 *1513:CLK 3.39487e-05
140 *128:22 *1642:CLK 0.000251563
141 *128:22 *887:156 0.000491464
142 *128:32 *887:143 0.000109465
143 *128:32 *887:156 0.000239984
144 *417:526 *1609:CLK 0
145 *417:526 *887:362 0
146 *417:526 *887:371 0
147 *418:320 *887:272 5.26029e-05
148 *418:320 *887:287 1.86178e-05
149 *418:326 *887:272 0.000144531
150 *418:360 *1481:CLK 3.99086e-06
151 *418:360 *887:258 3.99086e-06
152 *418:377 *1481:CLK 0.000143387
153 *423:331 *887:272 0.000168824
154 *423:352 *887:340 8.07366e-05
155 *427:316 *1609:CLK 0
156 *427:333 *1641:CLK 0.000136929
157 *443:12 *887:91 3.31882e-05
158 *445:18 *887:91 7.86825e-06
159 *856:14 *887:119 0
160 *856:14 *887:132 0
161 *856:18 *887:119 8.8047e-05
162 *856:108 *887:119 0.00104957
163 *856:118 *887:91 1.72347e-05
164 *856:118 *887:93 1.5714e-05
165 *857:27 *1546:CLK 1.9101e-05
166 *857:27 *1642:CLK 9.91565e-05
167 *857:27 *887:156 0.000112693
168 *857:35 *887:119 3.93117e-06
169 *857:35 *887:132 5.65929e-05
170 *857:35 *887:143 3.36636e-05
171 *857:35 *887:156 2.57753e-05
172 *858:12 *887:156 0.000350854
173 *858:16 *1379:CLK 0.00025389
174 *858:16 *887:81 0
175 *858:16 *887:91 4.14841e-05
176 *858:16 *887:93 0.000217479
177 *858:324 *1664:CLK 0.000113968
178 *858:324 *887:79 1.10793e-05
179 *858:324 *887:81 3.04443e-05
180 *858:337 *887:248 0
181 *858:364 *887:258 3.37073e-06
182 *860:13 *887:132 2.33397e-05
183 *860:13 *887:143 1.23544e-05
184 *863:16 *887:20 9.39749e-05
185 *871:21 *887:10 0
186 *871:21 *887:12 0
187 *871:21 *887:14 0
188 *871:25 *1408:CLK 0.000361436
189 *871:46 *1408:CLK 1.91246e-05
190 *872:37 *1615:CLK 0
191 *872:37 *887:293 0
192 *872:37 *887:306 0
193 *872:67 *1417:CLK 0.000426168
194 *875:67 *887:119 0.00129754
195 *875:69 *887:93 0.000131673
196 *875:75 *887:93 0.000267756
197 *875:85 *1379:CLK 0
198 *875:85 *887:93 0
199 *875:397 *887:81 0
200 *875:397 *887:91 0.000127908
201 *875:397 *887:93 1.72347e-05
202 *876:45 *887:272 1.4174e-05
203 *876:62 *887:272 0.000499403
204 *876:81 *887:248 0.000282881
205 *878:57 *1417:CLK 0.00020468
206 *879:77 *1408:CLK 4.16927e-05
207 *880:29 *887:79 0.000296332
208 *880:29 *887:81 0.000150816
209 *880:29 *887:91 1.25946e-05
210 *880:29 *887:191 0.000111722
211 *880:33 *1408:CLK 7.92757e-06
212 *880:33 *887:191 8.07303e-05
213 *880:320 *887:272 0.000214364
214 *880:326 *887:340 5.74984e-05
215 *886:239 *887:293 0
*RES
1 *2291:X *887:4 9.24915 
2 *887:4 *887:10 17.027 
3 *887:10 *887:12 1.41674 
4 *887:12 *887:14 4.32351 
5 *887:14 *887:20 26.0513 
6 *887:20 *887:24 6.74725 
7 *887:24 *1605:CLK 20.7386 
8 *887:24 *1541:CLK 13.7491 
9 *887:20 *1637:CLK 13.7342 
10 *887:14 *1568:CLK 13.7491 
11 *887:12 *887:62 12.4332 
12 *887:62 *1504:CLK 14.2888 
13 *887:62 *887:79 16.3713 
14 *887:79 *887:81 6.81502 
15 *887:81 *887:91 16.5757 
16 *887:91 *887:93 9.72179 
17 *887:93 *1379:CLK 23.8862 
18 *887:93 *1600:CLK 20.0186 
19 *887:91 *887:113 4.5 
20 *887:113 *887:119 21.751 
21 *887:119 *1392:CLK 17.125 
22 *887:119 *887:132 4.32351 
23 *887:132 *1520:CLK 14.4725 
24 *887:132 *887:143 2.6625 
25 *887:143 *1616:CLK 18.7888 
26 *887:143 *887:156 13.2514 
27 *887:156 *1546:CLK 21.564 
28 *887:156 *1642:CLK 19.0037 
29 *887:113 *1536:CLK 9.24915 
30 *887:81 *887:191 10.2148 
31 *887:191 *1632:CLK 9.24915 
32 *887:191 *1408:CLK 28.1748 
33 *887:79 *1664:CLK 15.0271 
34 *887:10 *1472:CLK 17.125 
35 *887:4 *887:237 19.9478 
36 *887:237 *1577:CLK 13.7491 
37 *887:237 *887:248 13.3913 
38 *887:248 *887:258 15.1912 
39 *887:258 *887:262 2.26664 
40 *887:262 *887:272 24.9928 
41 *887:272 *1551:CLK 13.7491 
42 *887:272 *887:287 13.3058 
43 *887:287 *887:293 19.2371 
44 *887:293 *1583:CLK 13.7491 
45 *887:293 *887:306 7.71881 
46 *887:306 *1391:CLK 15.5817 
47 *887:306 *1615:CLK 21.8422 
48 *887:287 *1455:CLK 9.24915 
49 *887:262 *1385:CLK 9.24915 
50 *887:258 *887:340 10.4845 
51 *887:340 *1513:CLK 14.4725 
52 *887:340 *887:351 13.0438 
53 *887:351 *1417:CLK 20.0186 
54 *887:351 *887:362 6.81502 
55 *887:362 *1545:CLK 13.7491 
56 *887:362 *887:371 3.493 
57 *887:371 *1641:CLK 25.5646 
58 *887:371 *1609:CLK 19.6294 
59 *887:248 *1481:CLK 17.6164 
*END

*D_NET *888 0.0426434
*CONN
*I *1553:CLK I *D sky130_fd_sc_hd__edfxtp_1
*I *1585:CLK I *D sky130_fd_sc_hd__edfxtp_1
*I *1393:CLK I *D sky130_fd_sc_hd__edfxtp_1
*I *1521:CLK I *D sky130_fd_sc_hd__edfxtp_1
*I *1414:CLK I *D sky130_fd_sc_hd__edfxtp_1
*I *1542:CLK I *D sky130_fd_sc_hd__edfxtp_1
*I *1638:CLK I *D sky130_fd_sc_hd__edfxtp_1
*I *1606:CLK I *D sky130_fd_sc_hd__edfxtp_1
*I *1574:CLK I *D sky130_fd_sc_hd__edfxtp_1
*I *1510:CLK I *D sky130_fd_sc_hd__edfxtp_1
*I *1489:CLK I *D sky130_fd_sc_hd__edfxtp_1
*I *1649:CLK I *D sky130_fd_sc_hd__edfxtp_1
*I *1457:CLK I *D sky130_fd_sc_hd__edfxtp_1
*I *1493:CLK I *D sky130_fd_sc_hd__edfxtp_1
*I *1461:CLK I *D sky130_fd_sc_hd__edfxtp_1
*I *1557:CLK I *D sky130_fd_sc_hd__edfxtp_1
*I *1653:CLK I *D sky130_fd_sc_hd__edfxtp_1
*I *1477:CLK I *D sky130_fd_sc_hd__edfxtp_1
*I *1478:CLK I *D sky130_fd_sc_hd__edfxtp_1
*I *1382:CLK I *D sky130_fd_sc_hd__edfxtp_1
*I *1617:CLK I *D sky130_fd_sc_hd__edfxtp_1
*I *1639:CLK I *D sky130_fd_sc_hd__edfxtp_1
*I *1607:CLK I *D sky130_fd_sc_hd__edfxtp_1
*I *1543:CLK I *D sky130_fd_sc_hd__edfxtp_1
*I *1415:CLK I *D sky130_fd_sc_hd__edfxtp_1
*I *1479:CLK I *D sky130_fd_sc_hd__edfxtp_1
*I *1575:CLK I *D sky130_fd_sc_hd__edfxtp_1
*I *1589:CLK I *D sky130_fd_sc_hd__edfxtp_1
*I *1511:CLK I *D sky130_fd_sc_hd__edfxtp_1
*I *1383:CLK I *D sky130_fd_sc_hd__edfxtp_1
*I *2292:X O *D sky130_fd_sc_hd__clkbuf_8
*CAP
1 *1553:CLK 0
2 *1585:CLK 9.2462e-05
3 *1393:CLK 0.000239748
4 *1521:CLK 3.93497e-05
5 *1414:CLK 0
6 *1542:CLK 0.000346464
7 *1638:CLK 2.70615e-06
8 *1606:CLK 0.000279586
9 *1574:CLK 0
10 *1510:CLK 6.11065e-05
11 *1489:CLK 0
12 *1649:CLK 0.000244979
13 *1457:CLK 0
14 *1493:CLK 0
15 *1461:CLK 0.000212865
16 *1557:CLK 0.000266391
17 *1653:CLK 0.000117602
18 *1477:CLK 0.000565798
19 *1478:CLK 0.000522123
20 *1382:CLK 0.000372007
21 *1617:CLK 0.000114285
22 *1639:CLK 0.000207755
23 *1607:CLK 0.000126151
24 *1543:CLK 0.000164368
25 *1415:CLK 3.57807e-05
26 *1479:CLK 0.000210485
27 *1575:CLK 3.67592e-05
28 *1589:CLK 0.000437331
29 *1511:CLK 0
30 *1383:CLK 0.000226392
31 *2292:X 0.000676457
32 *888:384 0.000434574
33 *888:357 0.000429327
34 *888:323 0.000282292
35 *888:257 0.000704534
36 *888:244 0.000484041
37 *888:238 0.000390858
38 *888:223 0.00109217
39 *888:219 0.000485082
40 *888:217 0.000930316
41 *888:205 0.00132947
42 *888:173 0.00113988
43 *888:171 0.00113579
44 *888:167 0.000197525
45 *888:165 0.00051743
46 *888:163 0.000619681
47 *888:161 0.00141891
48 *888:157 0.00128866
49 *888:149 0.000535379
50 *888:138 0.000833849
51 *888:132 0.000642679
52 *888:99 0.000547067
53 *888:86 0.000670223
54 *888:75 0.000524567
55 *888:62 0.000579252
56 *888:40 0.000764189
57 *888:34 0.000743767
58 *888:25 0.000378547
59 *888:12 0.000758701
60 *1477:CLK *1477:DE 3.39728e-05
61 *888:40 *1479:DE 0.000175589
62 *888:62 *1479:DE 0.000342657
63 *966:B *888:205 6.08467e-05
64 *966:B *888:217 2.82547e-05
65 *976:A *1393:CLK 4.58003e-05
66 *976:B *1393:CLK 0.000410656
67 *976:C *1393:CLK 3.79145e-06
68 *997:B *888:165 8.11618e-05
69 *1025:S0 *888:217 2.02035e-05
70 *1026:S0 *1607:CLK 9.08145e-05
71 *1027:A0 *1383:CLK 0.000163253
72 *1027:A0 *888:12 0.000319278
73 *1125:A1 *1477:CLK 0.000297073
74 *1130:A2 *888:205 1.7568e-05
75 *1130:S0 *1478:CLK 2.94898e-05
76 *1131:A2 *888:161 6.08467e-05
77 *1132:S *888:205 0.000114584
78 *1145:A1 *1478:CLK 0
79 *1146:S0 *888:163 3.94217e-05
80 *1146:S0 *888:357 6.01598e-05
81 *1169:A *888:219 0
82 *1190:C *888:165 8.12592e-05
83 *1190:C *888:167 2.71542e-05
84 *1223:A *888:12 0.000169684
85 *1223:B *888:12 0.000794066
86 *1223:B *888:132 0.00042026
87 *1254:B *888:163 4.2481e-05
88 *1254:B *888:165 0.000156801
89 *1286:A *1478:CLK 0
90 *1287:C *888:40 4.31703e-05
91 *1297:A *1393:CLK 0.000213725
92 *1318:C *1542:CLK 6.34813e-06
93 *1319:C *888:86 0
94 *1351:B *1639:CLK 0
95 *1351:B *888:99 0
96 *1365:A *888:257 0.000426168
97 *1365:B *1653:CLK 2.02035e-05
98 *1382:D *1382:CLK 5.48187e-06
99 *1383:D *1383:CLK 4.81696e-05
100 *1383:DE *1383:CLK 9.79114e-05
101 *1393:D *1393:CLK 0.000337369
102 *1397:D *1589:CLK 0.0001549
103 *1414:D *888:163 0
104 *1415:D *1543:CLK 0.0001073
105 *1415:D *888:86 0
106 *1415:D *888:99 0
107 *1477:D *1477:CLK 0.000200042
108 *1478:D *1478:CLK 0.000266285
109 *1479:D *1479:CLK 5.34249e-06
110 *1479:D *888:40 0.000114268
111 *1479:D *888:62 0.00035674
112 *1489:D *888:217 9.12033e-06
113 *1489:DE *888:217 0.000100415
114 *1493:DE *888:244 0.000167076
115 *1506:DE *1653:CLK 0.000207318
116 *1506:DE *888:238 0
117 *1506:DE *888:244 0.000165915
118 *1510:D *1510:CLK 0.000117872
119 *1510:D *888:167 0.000196072
120 *1511:D *1383:CLK 1.37421e-05
121 *1511:D *888:12 6.08502e-05
122 *1511:D *888:25 0.000156076
123 *1511:D *888:34 0.000172484
124 *1511:DE *888:34 3.42041e-05
125 *1521:D *888:149 3.01036e-05
126 *1521:DE *888:149 0
127 *1542:DE *888:163 5.4275e-05
128 *1542:DE *888:357 3.82403e-05
129 *1543:D *1543:CLK 0.000135252
130 *1543:D *888:99 0
131 *1543:DE *1543:CLK 3.43037e-05
132 *1553:D *888:138 0
133 *1553:DE *888:132 0.000201734
134 *1553:DE *888:138 0
135 *1557:D *1557:CLK 0.000168253
136 *1585:DE *1585:CLK 0.00017419
137 *1585:DE *888:384 0.000114865
138 *1589:DE *1589:CLK 8.11133e-05
139 *1606:D *1542:CLK 5.46865e-05
140 *1606:D *1606:CLK 9.14988e-05
141 *1607:DE *1607:CLK 0.000111722
142 *1607:DE *1639:CLK 0
143 *1607:DE *888:99 0
144 *1621:D *1589:CLK 0.000102372
145 *1638:D *1606:CLK 0.000128405
146 *1638:D *1638:CLK 4.05645e-06
147 *1649:D *1649:CLK 2.75521e-05
148 *1649:D *888:219 0
149 *1649:DE *1649:CLK 1.32124e-05
150 *1653:D *1653:CLK 3.17619e-05
151 *18:21 *1478:CLK 0
152 *27:28 *1393:CLK 4.33655e-05
153 *27:36 *888:138 0
154 *27:42 *888:132 0
155 *27:42 *888:138 4.47578e-05
156 *27:44 *888:132 0
157 *27:44 *888:217 0
158 *27:44 *888:219 0
159 *69:477 *888:161 0.00035377
160 *121:178 *888:217 0.000166963
161 *121:178 *888:219 4.60518e-05
162 *121:180 *888:219 0.000275989
163 *121:180 *888:223 0.000584883
164 *121:180 *888:238 0
165 *125:54 *1606:CLK 6.36477e-05
166 *125:71 *888:165 0
167 *125:79 *888:149 0.000101368
168 *125:79 *888:384 8.04524e-06
169 *125:93 *1589:CLK 0.000612762
170 *125:93 *888:99 0
171 *126:50 *1606:CLK 0.000203756
172 *126:50 *888:163 4.23614e-06
173 *126:50 *888:165 1.59362e-06
174 *126:75 *888:99 0
175 *126:89 *1589:CLK 0.000977726
176 *341:20 *1589:CLK 0.000130663
177 *417:351 *888:257 0.000472818
178 *417:353 *1557:CLK 0
179 *417:469 *888:86 0
180 *417:477 *1543:CLK 5.04829e-06
181 *417:487 *1393:CLK 0.000373061
182 *417:489 *1393:CLK 1.65872e-05
183 *417:489 *1542:CLK 0.000252372
184 *417:495 *1542:CLK 5.04829e-06
185 *418:537 *1557:CLK 0.000519705
186 *418:537 *888:257 0.000137299
187 *427:366 *1606:CLK 1.85244e-05
188 *427:431 *888:62 0
189 *427:431 *888:75 0
190 *449:14 *1383:CLK 1.91246e-05
191 *532:16 *888:161 8.79886e-06
192 *532:16 *888:205 0.00032795
193 *544:14 *1542:CLK 0
194 *858:364 *1382:CLK 3.36712e-05
195 *858:379 *1382:CLK 6.0494e-05
196 *858:379 *888:173 4.0315e-05
197 *858:402 *888:217 3.86813e-05
198 *858:402 *888:219 4.69495e-06
199 *858:406 *1653:CLK 0
200 *858:406 *888:238 7.2401e-05
201 *858:406 *888:244 0
202 *861:65 *1393:CLK 0.000125309
203 *861:86 *1639:CLK 0.000277502
204 *864:34 *1606:CLK 0.000314894
205 *864:34 *1638:CLK 1.8254e-05
206 *870:14 *888:138 6.1501e-05
207 *870:14 *888:149 7.39546e-05
208 *870:56 *888:62 3.24457e-05
209 *870:56 *888:75 0.000103692
210 *870:56 *888:86 5.35128e-05
211 *872:86 *888:165 7.09395e-05
212 *872:86 *888:167 3.66465e-05
213 *872:112 *888:165 1.90335e-05
214 *872:123 *888:165 6.63327e-05
215 *876:104 *1510:CLK 4.66519e-05
216 *876:104 *888:167 9.15703e-05
217 *878:104 *1606:CLK 1.78942e-05
218 *878:129 *888:165 2.21564e-05
219 *883:127 *888:25 5.22855e-05
220 *883:127 *888:34 0.000185606
*RES
1 *2292:X *888:12 28.8002 
2 *888:12 *1383:CLK 20.1489 
3 *888:12 *888:25 7.44181 
4 *888:25 *1511:CLK 9.24915 
5 *888:25 *888:34 12.9878 
6 *888:34 *888:40 12.044 
7 *888:40 *1589:CLK 40.1904 
8 *888:40 *1575:CLK 9.97254 
9 *888:34 *888:62 8.06078 
10 *888:62 *1479:CLK 17.125 
11 *888:62 *888:75 5.98452 
12 *888:75 *1415:CLK 14.4725 
13 *888:75 *888:86 6.39977 
14 *888:86 *1543:CLK 18.9094 
15 *888:86 *888:99 4.64105 
16 *888:99 *1607:CLK 17.8002 
17 *888:99 *1639:CLK 19.7687 
18 *2292:X *888:132 26.3478 
19 *888:132 *888:138 14.8114 
20 *888:138 *1617:CLK 16.1364 
21 *888:138 *888:149 7.85315 
22 *888:149 *888:157 6.89662 
23 *888:157 *888:161 21.3069 
24 *888:161 *888:163 4.73876 
25 *888:163 *888:165 13.0438 
26 *888:165 *888:167 4.73876 
27 *888:167 *888:171 5.2328 
28 *888:171 *888:173 3.49641 
29 *888:173 *1382:CLK 15.398 
30 *888:173 *1478:CLK 31.1858 
31 *888:171 *888:205 19.2664 
32 *888:205 *888:217 16.0046 
33 *888:217 *888:219 5.98452 
34 *888:219 *888:223 14.637 
35 *888:223 *1477:CLK 26.056 
36 *888:223 *888:238 15.0196 
37 *888:238 *888:244 9.41035 
38 *888:244 *1653:CLK 17.6574 
39 *888:244 *888:257 13.5424 
40 *888:257 *1557:CLK 28.8014 
41 *888:257 *1461:CLK 13.8789 
42 *888:238 *1493:CLK 9.24915 
43 *888:219 *1457:CLK 13.7491 
44 *888:217 *1649:CLK 17.6796 
45 *888:205 *1489:CLK 9.24915 
46 *888:167 *1510:CLK 15.9964 
47 *888:165 *1574:CLK 13.7491 
48 *888:163 *888:323 4.5 
49 *888:323 *1606:CLK 28.1679 
50 *888:323 *1638:CLK 9.46616 
51 *888:161 *888:357 7.1625 
52 *888:357 *1542:CLK 28.1509 
53 *888:357 *1414:CLK 9.24915 
54 *888:157 *1521:CLK 10.2378 
55 *888:149 *888:384 2.45487 
56 *888:384 *1393:CLK 28.8922 
57 *888:384 *1585:CLK 16.8269 
58 *888:132 *1553:CLK 9.24915 
*END

*D_NET *889 0.0302018
*CONN
*I *1538:CLK I *D sky130_fd_sc_hd__edfxtp_1
*I *1397:CLK I *D sky130_fd_sc_hd__edfxtp_1
*I *1525:CLK I *D sky130_fd_sc_hd__edfxtp_1
*I *1621:CLK I *D sky130_fd_sc_hd__edfxtp_1
*I *1602:CLK I *D sky130_fd_sc_hd__edfxtp_1
*I *1410:CLK I *D sky130_fd_sc_hd__edfxtp_1
*I *1634:CLK I *D sky130_fd_sc_hd__edfxtp_1
*I *1474:CLK I *D sky130_fd_sc_hd__edfxtp_1
*I *2309:A I *D sky130_fd_sc_hd__clkinv_4
*I *1506:CLK I *D sky130_fd_sc_hd__edfxtp_1
*I *1378:CLK I *D sky130_fd_sc_hd__edfxtp_1
*I *1570:CLK I *D sky130_fd_sc_hd__edfxtp_1
*I *1466:CLK I *D sky130_fd_sc_hd__edfxtp_1
*I *1573:CLK I *D sky130_fd_sc_hd__edfxtp_1
*I *1509:CLK I *D sky130_fd_sc_hd__edfxtp_1
*I *1381:CLK I *D sky130_fd_sc_hd__edfxtp_1
*I *1420:CLK I *D sky130_fd_sc_hd__edfxtp_1
*I *1644:CLK I *D sky130_fd_sc_hd__edfxtp_1
*I *1612:CLK I *D sky130_fd_sc_hd__edfxtp_1
*I *1548:CLK I *D sky130_fd_sc_hd__edfxtp_1
*I *1413:CLK I *D sky130_fd_sc_hd__edfxtp_1
*I *1484:CLK I *D sky130_fd_sc_hd__edfxtp_1
*I *1516:CLK I *D sky130_fd_sc_hd__edfxtp_1
*I *1580:CLK I *D sky130_fd_sc_hd__edfxtp_1
*I *1388:CLK I *D sky130_fd_sc_hd__edfxtp_1
*I *2293:X O *D sky130_fd_sc_hd__clkbuf_8
*CAP
1 *1538:CLK 0
2 *1397:CLK 0.000131393
3 *1525:CLK 0
4 *1621:CLK 2.54244e-05
5 *1602:CLK 0.000199362
6 *1410:CLK 1.23957e-05
7 *1634:CLK 0.000338617
8 *1474:CLK 0
9 *2309:A 0.000154026
10 *1506:CLK 3.01985e-05
11 *1378:CLK 0
12 *1570:CLK 5.80662e-05
13 *1466:CLK 0.00032461
14 *1573:CLK 0.000256114
15 *1509:CLK 0.00026176
16 *1381:CLK 3.866e-05
17 *1420:CLK 0
18 *1644:CLK 0.000281423
19 *1612:CLK 0
20 *1548:CLK 0.000252676
21 *1413:CLK 0.000169349
22 *1484:CLK 0
23 *1516:CLK 0.000166948
24 *1580:CLK 0.000228937
25 *1388:CLK 0.000360402
26 *2293:X 0.000624506
27 *889:289 0.000220064
28 *889:278 0.000665474
29 *889:267 0.000971727
30 *889:243 0.000493813
31 *889:241 0.000363786
32 *889:239 0.000659549
33 *889:230 0.00117914
34 *889:201 0.000317773
35 *889:174 0.00110312
36 *889:133 0.000467849
37 *889:106 0.000421521
38 *889:91 0.000563501
39 *889:87 0.000858902
40 *889:72 0.00201281
41 *889:70 0.00150798
42 *889:68 0.000739613
43 *889:57 0.000416528
44 *889:29 0.000442089
45 *889:27 0.000164503
46 *889:16 0.00163974
47 *889:14 0.00203503
48 *889:12 0.000189814
49 *889:8 0.00039303
50 *889:12 *2293:A 0
51 *889:16 *905:22 4.69808e-06
52 *889:239 *1474:DE 8.70942e-05
53 *961:B *889:174 0
54 *996:C *889:87 0
55 *1047:S *1621:CLK 0.000112367
56 *1047:S *889:289 3.08214e-05
57 *1110:A1 *889:239 0.000204384
58 *1110:S0 *1410:CLK 0.00011818
59 *1110:S0 *1634:CLK 1.77537e-06
60 *1110:S0 *889:243 3.93117e-06
61 *1110:S0 *889:267 0
62 *1126:A0 *889:72 2.41503e-05
63 *1126:A1 *1509:CLK 0
64 *1126:A1 *889:133 0
65 *1127:A0 *889:68 0.000305918
66 *1160:A0 *889:12 0
67 *1160:A2 *889:16 1.43287e-05
68 *1160:S1 *889:68 0.000239009
69 *1189:C *1509:CLK 5.92342e-05
70 *1196:A *1580:CLK 3.44095e-05
71 *1196:A *889:29 1.47102e-05
72 *1196:A *889:57 2.50518e-05
73 *1196:B *1506:CLK 4.89392e-05
74 *1282:A *889:174 6.46398e-05
75 *1282:B *1466:CLK 0
76 *1282:B *889:174 0
77 *1378:D *889:12 1.2601e-05
78 *1378:D *889:174 5.49079e-06
79 *1378:DE *889:12 0
80 *1378:DE *889:174 4.22338e-05
81 *1381:D *1381:CLK 1.41976e-05
82 *1388:D *1388:CLK 3.73045e-05
83 *1388:D *1580:CLK 0.000117067
84 *1388:D *889:29 6.28484e-05
85 *1388:D *889:57 7.04342e-05
86 *1397:D *1397:CLK 4.58003e-05
87 *1410:D *1410:CLK 0.00011818
88 *1413:D *889:72 3.48206e-05
89 *1413:D *889:87 8.92568e-06
90 *1413:DE *889:87 8.56933e-05
91 *1466:D *1466:CLK 2.14842e-06
92 *1474:D *889:239 0.000140477
93 *1506:DE *1506:CLK 3.00829e-05
94 *1506:DE *2309:A 0.000148002
95 *1516:D *1516:CLK 3.02534e-05
96 *1525:D *1397:CLK 2.33193e-05
97 *1538:D *889:243 6.74005e-06
98 *1538:D *889:267 2.95039e-05
99 *1541:DE *889:87 2.71975e-05
100 *1593:DE *889:106 0
101 *1602:D *1602:CLK 0.0001844
102 *1602:DE *1602:CLK 8.11133e-05
103 *1612:DE *889:106 0
104 *1634:D *1634:CLK 2.83154e-05
105 *1634:DE *1634:CLK 8.11886e-06
106 *1644:DE *1644:CLK 0.00016553
107 *14:49 *889:230 2.33638e-05
108 *14:55 *889:174 3.92275e-05
109 *14:55 *889:230 2.65831e-05
110 *25:19 *1580:CLK 6.34651e-06
111 *25:64 *1548:CLK 0.000118017
112 *121:148 *1580:CLK 0.000327048
113 *124:174 *1466:CLK 0.000110458
114 *124:174 *1570:CLK 0.000216467
115 *125:97 *1397:CLK 1.65078e-05
116 *125:97 *889:267 6.08697e-06
117 *125:97 *889:278 0.000221801
118 *125:99 *1634:CLK 4.01573e-05
119 *125:99 *889:243 5.03723e-05
120 *125:99 *889:267 9.38714e-05
121 *126:89 *1397:CLK 7.38598e-05
122 *126:89 *889:289 3.49773e-05
123 *126:118 *1634:CLK 0
124 *341:20 *1397:CLK 4.34752e-05
125 *341:20 *889:278 0.000254162
126 *341:20 *889:289 0.000181314
127 *396:22 *1644:CLK 0
128 *417:351 *1509:CLK 3.6455e-05
129 *418:447 *1580:CLK 2.16355e-05
130 *418:537 *889:230 9.87648e-05
131 *423:364 *1509:CLK 1.04747e-05
132 *423:368 *1509:CLK 0.000370683
133 *423:368 *889:133 0.000310236
134 *423:379 *1466:CLK 0
135 *464:26 *1621:CLK 2.84892e-05
136 *529:10 *889:57 8.53833e-05
137 *529:10 *889:68 0.000218991
138 *856:308 *1548:CLK 1.59362e-06
139 *856:308 *889:87 0.000405833
140 *857:277 *1644:CLK 0
141 *857:277 *889:106 0
142 *857:319 *1644:CLK 0
143 *858:441 *889:57 7.86219e-05
144 *858:441 *889:68 0.000136364
145 *858:443 *1580:CLK 6.11006e-05
146 *858:443 *889:57 5.1493e-06
147 *871:65 *1644:CLK 0.000167196
148 *871:65 *889:106 7.4846e-05
149 *871:84 *889:91 0.000601951
150 *871:105 *1580:CLK 6.27718e-05
151 *875:354 *889:91 0.000113436
152 *879:81 *889:87 0.000321708
153 *879:143 *889:87 0.000148859
154 *881:63 *889:68 0.000253826
155 *883:137 *889:278 6.67641e-06
156 *883:157 *889:267 0
157 *883:157 *889:278 0
*RES
1 *2293:X *889:8 16.1364 
2 *889:8 *889:12 8.40826 
3 *889:12 *889:14 0.988641 
4 *889:14 *889:16 17.9161 
5 *889:16 *1388:CLK 14.8434 
6 *889:16 *889:27 4.5 
7 *889:27 *889:29 1.41674 
8 *889:29 *1580:CLK 23.0219 
9 *889:29 *1516:CLK 16.5704 
10 *889:27 *889:57 4.73876 
11 *889:57 *1484:CLK 13.7491 
12 *889:57 *889:68 18.7896 
13 *889:68 *889:70 2.38721 
14 *889:70 *889:72 16.2523 
15 *889:72 *1413:CLK 12.0704 
16 *889:72 *889:87 33.6709 
17 *889:87 *889:91 11.324 
18 *889:91 *1548:CLK 18.8176 
19 *889:91 *889:106 3.493 
20 *889:106 *1612:CLK 13.7491 
21 *889:106 *1644:CLK 22.3968 
22 *889:87 *1420:CLK 9.24915 
23 *889:70 *889:133 10.0693 
24 *889:133 *1381:CLK 14.4725 
25 *889:133 *1509:CLK 22.3968 
26 *889:68 *1573:CLK 13.1796 
27 *889:14 *889:174 22.2971 
28 *889:174 *1466:CLK 26.3422 
29 *889:174 *1570:CLK 11.6364 
30 *889:12 *1378:CLK 9.24915 
31 *889:8 *889:201 3.07775 
32 *889:201 *1506:CLK 15.0271 
33 *889:201 *2309:A 17.9655 
34 *2293:X *889:230 21.0887 
35 *889:230 *1474:CLK 9.24915 
36 *889:230 *889:239 16.2764 
37 *889:239 *889:241 4.5 
38 *889:241 *889:243 3.493 
39 *889:243 *1634:CLK 20.3421 
40 *889:243 *1410:CLK 15.0271 
41 *889:241 *889:267 6.39977 
42 *889:267 *1602:CLK 18.9094 
43 *889:267 *889:278 17.1963 
44 *889:278 *1621:CLK 15.0271 
45 *889:278 *889:289 3.493 
46 *889:289 *1525:CLK 13.7491 
47 *889:289 *1397:CLK 18.1049 
48 *889:239 *1538:CLK 9.24915 
*END

*D_NET *890 0.0324357
*CONN
*I *1658:CLK I *D sky130_fd_sc_hd__edfxtp_1
*I *1498:CLK I *D sky130_fd_sc_hd__edfxtp_1
*I *1530:CLK I *D sky130_fd_sc_hd__edfxtp_1
*I *1594:CLK I *D sky130_fd_sc_hd__edfxtp_1
*I *1402:CLK I *D sky130_fd_sc_hd__edfxtp_1
*I *1626:CLK I *D sky130_fd_sc_hd__edfxtp_1
*I *1562:CLK I *D sky130_fd_sc_hd__edfxtp_1
*I *1561:CLK I *D sky130_fd_sc_hd__edfxtp_1
*I *1497:CLK I *D sky130_fd_sc_hd__edfxtp_1
*I *1465:CLK I *D sky130_fd_sc_hd__edfxtp_1
*I *1657:CLK I *D sky130_fd_sc_hd__edfxtp_1
*I *1475:CLK I *D sky130_fd_sc_hd__edfxtp_1
*I *1593:CLK I *D sky130_fd_sc_hd__edfxtp_1
*I *1529:CLK I *D sky130_fd_sc_hd__edfxtp_1
*I *1401:CLK I *D sky130_fd_sc_hd__edfxtp_1
*I *1625:CLK I *D sky130_fd_sc_hd__edfxtp_1
*I *1398:CLK I *D sky130_fd_sc_hd__edfxtp_1
*I *1558:CLK I *D sky130_fd_sc_hd__edfxtp_1
*I *1462:CLK I *D sky130_fd_sc_hd__edfxtp_1
*I *1661:CLK I *D sky130_fd_sc_hd__edfxtp_1
*I *1501:CLK I *D sky130_fd_sc_hd__edfxtp_1
*I *1469:CLK I *D sky130_fd_sc_hd__edfxtp_1
*I *2303:A I *D sky130_fd_sc_hd__inv_6
*I *2294:X O *D sky130_fd_sc_hd__clkbuf_8
*CAP
1 *1658:CLK 8.25278e-05
2 *1498:CLK 0
3 *1530:CLK 0.000116904
4 *1594:CLK 0
5 *1402:CLK 0.000139831
6 *1626:CLK 0.000251361
7 *1562:CLK 0.000161717
8 *1561:CLK 0
9 *1497:CLK 0
10 *1465:CLK 0.000395248
11 *1657:CLK 0
12 *1475:CLK 0
13 *1593:CLK 6.25228e-05
14 *1529:CLK 0
15 *1401:CLK 8.10932e-05
16 *1625:CLK 0.000203534
17 *1398:CLK 0.000292021
18 *1558:CLK 5.10641e-05
19 *1462:CLK 0.000383324
20 *1661:CLK 9.19207e-05
21 *1501:CLK 0.000109458
22 *1469:CLK 0.000241216
23 *2303:A 7.17458e-05
24 *2294:X 5.06411e-05
25 *890:282 0.000359413
26 *890:267 0.000563175
27 *890:265 0.000561887
28 *890:246 0.00134806
29 *890:242 0.00121028
30 *890:234 0.000968069
31 *890:197 0.00161039
32 *890:170 0.00177093
33 *890:141 0.000404741
34 *890:139 0.000272457
35 *890:137 0.00153484
36 *890:125 0.00128448
37 *890:123 0.000658035
38 *890:117 0.000514971
39 *890:89 0.000806091
40 *890:76 0.00156137
41 *890:66 0.00109516
42 *890:62 0.000499495
43 *890:40 0.000677935
44 *890:18 0.000312962
45 *890:16 0.000610972
46 *890:14 0.00068126
47 *890:8 0.00073477
48 *1398:CLK *1558:DE 7.82637e-06
49 *1469:CLK *905:36 6.27718e-05
50 *1558:CLK *1558:DE 7.0774e-05
51 *890:89 *1558:DE 1.27831e-06
52 *984:C *1401:CLK 0.000269254
53 *1050:A2 *890:89 0
54 *1050:S0 *890:76 0
55 *1050:S0 *890:89 0.000145045
56 *1050:S0 *890:123 4.86266e-05
57 *1051:A3 *1398:CLK 0.000125274
58 *1065:A1 *890:234 0
59 *1065:A1 *890:242 0.000130445
60 *1065:A2 *890:234 0.000183099
61 *1065:S0 *890:123 8.94313e-05
62 *1066:A0 *1465:CLK 8.32204e-06
63 *1066:A0 *890:123 2.8267e-05
64 *1066:A0 *890:137 0.00031746
65 *1066:A2 *890:137 0.000109421
66 *1067:A0 *890:117 9.16203e-05
67 *1067:A0 *890:137 7.92757e-06
68 *1070:A0 *1626:CLK 7.60183e-05
69 *1070:A0 *890:282 0.000115371
70 *1070:A1 *1530:CLK 3.97254e-05
71 *1070:A3 *890:265 0.000384424
72 *1071:S0 *1530:CLK 6.85861e-07
73 *1071:S0 *890:265 0.000113968
74 *1071:S0 *890:267 9.22013e-06
75 *1072:A1 *890:267 0
76 *1115:A0 *890:197 0
77 *1115:A1 *890:197 0.000163377
78 *1116:A1 *1625:CLK 0
79 *1117:A0 *890:197 0.000264586
80 *1117:A1 *890:197 0.000377369
81 *1117:S *890:197 0
82 *1174:B *1398:CLK 0
83 *1174:B *890:89 0
84 *1174:C *890:89 0
85 *1181:A *1501:CLK 9.31314e-05
86 *1181:A *890:40 0
87 *1241:C *890:141 0
88 *1242:C *890:265 0.000181027
89 *1305:A *890:139 8.03117e-05
90 *1305:A *890:141 3.45997e-05
91 *1305:C *890:137 0.000161252
92 *1306:B *1626:CLK 5.04829e-06
93 *1337:C *890:139 2.29386e-05
94 *1337:C *890:141 5.86078e-05
95 *1356:A *890:197 6.27718e-05
96 *1356:C *890:197 4.31603e-06
97 *1369:B *1469:CLK 0.000736557
98 *1369:B *2303:A 0.000216467
99 *1462:D *1462:CLK 5.48187e-06
100 *1462:DE *1462:CLK 3.91818e-05
101 *1475:D *890:197 4.57211e-05
102 *1497:D *890:117 8.10514e-06
103 *1497:DE *890:117 0
104 *1498:D *890:246 6.55898e-05
105 *1498:DE *890:242 0.000115632
106 *1498:DE *890:246 3.2256e-05
107 *1529:D *890:141 2.5131e-05
108 *1561:D *890:62 0.000143579
109 *1561:D *890:76 0
110 *1561:D *890:117 0
111 *1561:DE *890:62 3.44641e-05
112 *1593:D *890:137 1.77894e-05
113 *1593:D *890:139 2.4433e-05
114 *1593:D *890:170 1.89812e-05
115 *1594:D *1402:CLK 4.47578e-05
116 *1594:D *1626:CLK 0.000112288
117 *1594:D *890:282 0.000167076
118 *1594:DE *890:282 0.000171273
119 *1597:DE *1402:CLK 0
120 *1625:D *1625:CLK 0
121 *1625:D *890:141 0
122 *1626:D *1626:CLK 0.000368581
123 *1657:D *1465:CLK 1.59362e-06
124 *1657:D *890:76 3.82417e-05
125 *1657:D *890:117 4.78735e-05
126 *1657:D *890:123 2.59418e-05
127 *1658:DE *1658:CLK 2.16355e-05
128 *4:27 *1625:CLK 0.000163333
129 *4:27 *890:141 1.92974e-05
130 *4:36 *890:141 4.26859e-05
131 *5:19 *1530:CLK 6.01588e-05
132 *5:42 *890:246 3.25371e-05
133 *5:42 *890:265 5.23367e-05
134 *25:47 *890:197 5.48238e-05
135 *32:59 *1398:CLK 0.000167661
136 *32:59 *890:89 0.000126842
137 *32:73 *890:89 0
138 *123:43 *890:197 1.04816e-05
139 *123:62 *890:197 1.99543e-06
140 *124:133 *890:76 0
141 *126:139 *1626:CLK 0
142 *423:379 *890:242 0
143 *423:381 *890:242 0
144 *479:12 *890:8 0.000165521
145 *481:14 *890:117 2.02035e-05
146 *520:14 *890:170 0
147 *520:14 *890:197 0
148 *858:443 *1465:CLK 0
149 *858:462 *890:242 1.22026e-05
150 *858:470 *890:242 1.83409e-05
151 *860:70 *1401:CLK 0.000634132
152 *862:124 *1625:CLK 0.000118367
153 *864:79 *1402:CLK 0.000170592
154 *866:23 *1558:CLK 1.78942e-05
155 *867:192 *1401:CLK 1.41976e-05
156 *870:98 *1530:CLK 0.000209778
157 *870:98 *890:267 2.69685e-05
158 *870:104 *1626:CLK 0.000358231
159 *870:104 *890:265 6.08467e-05
160 *870:104 *890:267 0.000138872
161 *874:295 *890:197 7.68538e-06
162 *875:354 *890:170 0
163 *875:354 *890:197 0
164 *876:172 *1562:CLK 0
165 *880:173 *890:234 0
166 *880:179 *890:40 0
167 *881:309 *890:137 0.000264703
168 *881:405 *1562:CLK 0
169 *882:133 *890:123 0.000131204
170 *882:133 *890:137 3.16719e-05
*RES
1 *2294:X *890:8 15.5817 
2 *890:8 *890:14 4.39679 
3 *890:14 *890:16 3.07775 
4 *890:16 *890:18 4.5 
5 *890:18 *2303:A 11.6364 
6 *890:18 *1469:CLK 17.737 
7 *890:16 *890:40 14.9896 
8 *890:40 *1501:CLK 21.7421 
9 *890:40 *1661:CLK 11.0817 
10 *890:14 *890:62 13.5424 
11 *890:62 *890:66 7.44181 
12 *890:66 *890:76 19.8677 
13 *890:76 *1462:CLK 15.398 
14 *890:76 *890:89 16.5057 
15 *890:89 *1558:CLK 15.584 
16 *890:89 *1398:CLK 22.61 
17 *890:66 *890:117 11.7303 
18 *890:117 *890:123 11.4894 
19 *890:123 *890:125 4.5 
20 *890:125 *890:137 26.356 
21 *890:137 *890:139 4.53113 
22 *890:139 *890:141 3.90826 
23 *890:141 *1625:CLK 19.7687 
24 *890:141 *1401:CLK 20.5732 
25 *890:139 *1529:CLK 13.7491 
26 *890:137 *890:170 2.45487 
27 *890:170 *1593:CLK 15.0271 
28 *890:170 *890:197 41.1562 
29 *890:197 *1475:CLK 9.24915 
30 *890:125 *1657:CLK 9.24915 
31 *890:123 *1465:CLK 21.9871 
32 *890:117 *1497:CLK 9.24915 
33 *890:62 *1561:CLK 9.24915 
34 *890:8 *890:234 17.0299 
35 *890:234 *890:242 18.7568 
36 *890:242 *890:246 12.8041 
37 *890:246 *1562:CLK 21.7744 
38 *890:246 *890:265 15.2304 
39 *890:265 *890:267 3.07775 
40 *890:267 *1626:CLK 24.1999 
41 *890:267 *890:282 11.324 
42 *890:282 *1402:CLK 22.6049 
43 *890:282 *1594:CLK 9.24915 
44 *890:265 *1530:CLK 17.6574 
45 *890:242 *1498:CLK 9.24915 
46 *890:234 *1658:CLK 11.0817 
*END

*D_NET *891 0.0401695
*CONN
*I *1405:CLK I *D sky130_fd_sc_hd__edfxtp_1
*I *1597:CLK I *D sky130_fd_sc_hd__edfxtp_1
*I *1629:CLK I *D sky130_fd_sc_hd__edfxtp_1
*I *1533:CLK I *D sky130_fd_sc_hd__edfxtp_1
*I *1627:CLK I *D sky130_fd_sc_hd__edfxtp_1
*I *1595:CLK I *D sky130_fd_sc_hd__edfxtp_1
*I *1565:CLK I *D sky130_fd_sc_hd__edfxtp_1
*I *1499:CLK I *D sky130_fd_sc_hd__edfxtp_1
*I *1659:CLK I *D sky130_fd_sc_hd__edfxtp_1
*I *1563:CLK I *D sky130_fd_sc_hd__edfxtp_1
*I *1531:CLK I *D sky130_fd_sc_hd__edfxtp_1
*I *1403:CLK I *D sky130_fd_sc_hd__edfxtp_1
*I *1581:CLK I *D sky130_fd_sc_hd__edfxtp_1
*I *1389:CLK I *D sky130_fd_sc_hd__edfxtp_1
*I *1613:CLK I *D sky130_fd_sc_hd__edfxtp_1
*I *1645:CLK I *D sky130_fd_sc_hd__edfxtp_1
*I *1453:CLK I *D sky130_fd_sc_hd__edfxtp_1
*I *1485:CLK I *D sky130_fd_sc_hd__edfxtp_1
*I *1470:CLK I *D sky130_fd_sc_hd__edfxtp_1
*I *1622:CLK I *D sky130_fd_sc_hd__edfxtp_1
*I *1598:CLK I *D sky130_fd_sc_hd__edfxtp_1
*I *1534:CLK I *D sky130_fd_sc_hd__edfxtp_1
*I *1406:CLK I *D sky130_fd_sc_hd__edfxtp_1
*I *1630:CLK I *D sky130_fd_sc_hd__edfxtp_1
*I *1566:CLK I *D sky130_fd_sc_hd__edfxtp_1
*I *1502:CLK I *D sky130_fd_sc_hd__edfxtp_1
*I *1662:CLK I *D sky130_fd_sc_hd__edfxtp_1
*I *1549:CLK I *D sky130_fd_sc_hd__edfxtp_1
*I *1517:CLK I *D sky130_fd_sc_hd__edfxtp_1
*I *1467:CLK I *D sky130_fd_sc_hd__edfxtp_1
*I *2295:X O *D sky130_fd_sc_hd__clkbuf_8
*CAP
1 *1405:CLK 0.000160539
2 *1597:CLK 0.000220555
3 *1629:CLK 5.86929e-05
4 *1533:CLK 0.000316365
5 *1627:CLK 0
6 *1595:CLK 5.58233e-05
7 *1565:CLK 0.000438394
8 *1499:CLK 0
9 *1659:CLK 6.96067e-05
10 *1563:CLK 0
11 *1531:CLK 0.000118585
12 *1403:CLK 5.88726e-05
13 *1581:CLK 0
14 *1389:CLK 6.1245e-05
15 *1613:CLK 0.000144806
16 *1645:CLK 0.00052823
17 *1453:CLK 0
18 *1485:CLK 0
19 *1470:CLK 0
20 *1622:CLK 0.000719267
21 *1598:CLK 0
22 *1534:CLK 2.7855e-05
23 *1406:CLK 0.000260991
24 *1630:CLK 0.000131141
25 *1566:CLK 9.41919e-05
26 *1502:CLK 0.00016866
27 *1662:CLK 0.000242757
28 *1549:CLK 9.8966e-05
29 *1517:CLK 2.12792e-05
30 *1467:CLK 0.000529406
31 *2295:X 0
32 *891:388 0.000492805
33 *891:377 0.000282049
34 *891:366 0.00114681
35 *891:357 0.000844759
36 *891:346 0.000212661
37 *891:324 0.000562953
38 *891:309 0.000787067
39 *891:294 0.000938917
40 *891:269 0.000772252
41 *891:265 0.000541514
42 *891:254 0.00077839
43 *891:225 0.000281167
44 *891:179 0.000895148
45 *891:166 0.000286357
46 *891:155 0.000412354
47 *891:144 0.000362065
48 *891:133 0.000415948
49 *891:120 0.000472797
50 *891:107 0.000622671
51 *891:103 0.00129897
52 *891:78 0.00123113
53 *891:74 0.000285635
54 *891:66 0.000303749
55 *891:62 0.000981219
56 *891:56 0.000705545
57 *891:39 0.000567524
58 *891:29 0.00043102
59 *891:21 0.000970152
60 *891:4 0.000834154
61 *1467:CLK *905:72 0
62 *1549:CLK *1549:DE 0
63 *1622:CLK *903:268 0
64 *891:74 *1453:DE 6.55265e-05
65 *891:103 *1470:DE 1.1355e-05
66 *891:103 *1549:DE 0
67 *891:294 *905:53 0
68 *972:B *1613:CLK 0
69 *972:C *1613:CLK 0
70 *1075:A3 *891:294 0
71 *1075:S0 *1467:CLK 6.73619e-05
72 *1086:S0 *891:366 0
73 *1087:A0 *1597:CLK 9.93562e-05
74 *1090:A1 *891:103 3.75221e-05
75 *1090:S0 *891:103 7.61548e-05
76 *1091:A0 *1467:CLK 0.000315549
77 *1165:C *891:62 0
78 *1182:A *891:107 0.000159016
79 *1182:C *1502:CLK 4.28856e-07
80 *1182:C *891:107 4.99247e-05
81 *1182:C *891:120 1.32043e-05
82 *1211:B *1565:CLK 0.000724825
83 *1229:C *891:39 0.000190001
84 *1229:C *891:56 2.18922e-05
85 *1243:B *891:269 0.000156168
86 *1243:B *891:294 1.65872e-05
87 *1293:A *891:39 0.000193478
88 *1310:C *1406:CLK 2.33246e-05
89 *1310:C *891:166 0.000164842
90 *1310:C *891:179 0.000238297
91 *1341:C *1405:CLK 8.14831e-05
92 *1341:C *891:366 0.00017866
93 *1341:C *891:377 8.95222e-05
94 *1341:C *891:388 8.45103e-05
95 *1342:B *1630:CLK 2.16355e-05
96 *1342:C *1630:CLK 7.93303e-06
97 *1371:A *1659:CLK 0.000195743
98 *1371:A *891:309 0.000111722
99 *1374:B *891:120 0
100 *1389:D *1389:CLK 0.000479276
101 *1389:D *1613:CLK 0
102 *1389:D *891:225 0.000264612
103 *1403:D *891:254 4.11892e-05
104 *1403:D *891:265 1.59362e-06
105 *1405:D *1405:CLK 4.89392e-05
106 *1469:D *1565:CLK 1.36691e-05
107 *1470:D *891:103 5.29719e-05
108 *1470:D *891:107 0.000537273
109 *1499:D *891:309 6.50586e-05
110 *1499:DE *1565:CLK 3.14978e-05
111 *1499:DE *891:324 7.48797e-05
112 *1517:D *891:56 5.48387e-05
113 *1531:D *891:269 0.000159243
114 *1533:DE *1533:CLK 3.43037e-05
115 *1549:D *891:62 0.000117609
116 *1549:D *891:66 4.43331e-05
117 *1549:D *891:74 0.000372851
118 *1581:DE *891:29 0
119 *1595:DE *891:254 0.000417478
120 *1597:D *1597:CLK 0.000134113
121 *1597:DE *1597:CLK 3.39728e-05
122 *1622:D *1622:CLK 0.000143579
123 *1622:DE *1622:CLK 8.11133e-05
124 *1629:D *891:366 0
125 *1629:D *891:377 0
126 *1629:D *891:388 0
127 *1630:D *1630:CLK 0.000123698
128 *1645:D *1645:CLK 3.30508e-05
129 *1645:DE *1645:CLK 7.62718e-06
130 *1662:D *1662:CLK 0.000143579
131 *1662:DE *1662:CLK 0.000176816
132 *1:13 *1549:CLK 0.000200236
133 *1:13 *891:74 6.31809e-05
134 *1:13 *891:103 0.000144546
135 *1:22 *891:74 3.40886e-05
136 *1:33 *891:74 6.86761e-05
137 *1:48 *891:74 3.00174e-06
138 *1:59 *891:56 0
139 *1:68 *891:56 0
140 *6:53 *891:269 7.92757e-06
141 *6:59 *891:269 1.65872e-05
142 *6:59 *891:294 0.000502207
143 *6:70 *891:294 3.83021e-05
144 *6:87 *891:309 0.000149001
145 *9:13 *1662:CLK 0
146 *9:22 *1662:CLK 0
147 *9:44 *891:120 0
148 *9:44 *891:133 0
149 *9:59 *891:133 0
150 *9:59 *891:144 0
151 *285:26 *1533:CLK 0.000188733
152 *318:24 *1566:CLK 5.04829e-06
153 *418:230 *891:133 0.000198749
154 *418:249 *891:103 0.000114833
155 *423:395 *1659:CLK 8.6297e-06
156 *427:530 *891:269 3.35538e-05
157 *427:536 *1531:CLK 1.07549e-05
158 *427:536 *891:39 7.06708e-05
159 *427:536 *891:269 9.45696e-06
160 *432:14 *1613:CLK 0
161 *487:14 *1531:CLK 0.000134976
162 *856:168 *1534:CLK 6.08467e-05
163 *856:187 *891:39 2.65667e-05
164 *856:187 *891:56 3.61993e-05
165 *858:480 *1565:CLK 0
166 *858:480 *1659:CLK 0.000201144
167 *858:480 *891:324 0.000139467
168 *858:497 *891:62 0
169 *859:98 *891:39 7.78924e-05
170 *865:262 *1502:CLK 1.56911e-05
171 *865:262 *891:120 2.26557e-05
172 *865:289 *891:66 2.24632e-05
173 *865:289 *891:74 6.13051e-05
174 *866:63 *891:294 0.000258188
175 *866:70 *891:294 0.000148511
176 *866:74 *1531:CLK 0.000118136
177 *866:84 *891:29 0.000119367
178 *866:84 *891:56 0.000262318
179 *874:451 *1622:CLK 8.43738e-05
180 *874:453 *1622:CLK 0.000155136
181 *874:453 *891:179 4.03301e-05
182 *874:459 *891:155 9.3362e-05
183 *874:459 *891:166 3.87022e-06
184 *874:461 *1662:CLK 2.05181e-05
185 *874:461 *891:120 0.00022465
186 *874:461 *891:133 0.000324156
187 *874:461 *891:144 0.000366247
188 *874:461 *891:155 5.37077e-05
189 *874:467 *1662:CLK 5.92192e-05
190 *874:467 *891:107 5.28937e-05
191 *874:488 *1662:CLK 0
192 *874:488 *891:78 6.23875e-05
193 *874:488 *891:107 2.49771e-05
194 *874:501 *891:107 6.08467e-05
195 *874:592 *1531:CLK 3.82228e-05
196 *874:594 *891:254 3.95196e-05
197 *874:594 *891:265 0.000108832
198 *874:600 *891:254 0.000126026
199 *874:633 *891:265 3.70431e-05
200 *874:633 *891:346 2.29838e-05
201 *874:633 *891:357 7.95238e-05
202 *874:633 *891:366 6.34651e-06
203 *874:652 *891:366 0
204 *875:230 *1406:CLK 3.75221e-05
205 *876:261 *891:62 9.92077e-05
206 *877:241 *1622:CLK 0.000222112
207 *877:241 *891:144 5.86078e-05
208 *877:241 *891:155 0.00015661
209 *877:241 *891:166 0.000178143
210 *877:241 *891:179 0.000391746
211 *877:247 *891:144 0.000209824
212 *877:262 *891:62 2.65831e-05
213 *877:283 *891:62 0.000160908
214 *877:283 *891:225 3.31745e-05
215 *880:189 *1622:CLK 0
216 *880:207 *1406:CLK 0.000855518
217 *880:221 *1389:CLK 0.000202245
218 *880:221 *891:62 0.0005768
219 *880:221 *891:225 0.000198909
220 *880:275 *1597:CLK 5.04829e-06
221 *880:275 *891:366 0.00010193
222 *881:174 *1566:CLK 0.000113628
223 *881:204 *1467:CLK 0.000365076
224 *881:204 *891:21 0.000108249
225 *881:259 *1467:CLK 0
226 *881:259 *1659:CLK 9.22013e-06
227 *881:259 *891:324 5.61125e-05
228 *882:304 *891:29 0
229 *882:304 *891:254 1.40667e-05
230 *882:320 *891:254 0
231 *882:320 *891:357 0
232 *882:320 *891:366 0
*RES
1 *2295:X *891:4 9.24915 
2 *891:4 *1467:CLK 33.9995 
3 *891:4 *891:21 6.82404 
4 *891:21 *891:29 13.0557 
5 *891:29 *891:39 18.5104 
6 *891:39 *1517:CLK 9.82786 
7 *891:39 *891:56 16.1501 
8 *891:56 *891:62 18.415 
9 *891:62 *891:66 6.74725 
10 *891:66 *891:74 17.6476 
11 *891:74 *891:78 6.3326 
12 *891:78 *1549:CLK 17.2421 
13 *891:78 *891:103 33.4698 
14 *891:103 *891:107 14.0971 
15 *891:107 *1662:CLK 21.1538 
16 *891:107 *891:120 4.32351 
17 *891:120 *1502:CLK 16.5704 
18 *891:120 *891:133 5.98452 
19 *891:133 *1566:CLK 16.691 
20 *891:133 *891:144 6.81502 
21 *891:144 *1630:CLK 17.8002 
22 *891:144 *891:155 3.07775 
23 *891:155 *1406:CLK 23.3462 
24 *891:155 *891:166 3.493 
25 *891:166 *1534:CLK 14.4725 
26 *891:166 *891:179 7.96307 
27 *891:179 *1598:CLK 13.7491 
28 *891:179 *1622:CLK 34.7262 
29 *891:103 *1470:CLK 9.24915 
30 *891:74 *1485:CLK 9.24915 
31 *891:66 *1453:CLK 9.24915 
32 *891:62 *1645:CLK 21.5618 
33 *891:56 *891:225 4.05102 
34 *891:225 *1613:CLK 21.3269 
35 *891:225 *1389:CLK 14.4094 
36 *891:29 *1581:CLK 9.24915 
37 *891:21 *891:254 18.833 
38 *891:254 *1403:CLK 15.0271 
39 *891:254 *891:265 5.98452 
40 *891:265 *891:269 12.4332 
41 *891:269 *1531:CLK 22.1896 
42 *891:269 *891:294 21.1738 
43 *891:294 *1563:CLK 9.24915 
44 *891:294 *891:309 19.3055 
45 *891:309 *1659:CLK 17.6574 
46 *891:309 *891:324 8.9951 
47 *891:324 *1499:CLK 9.24915 
48 *891:324 *1565:CLK 32.5951 
49 *891:265 *891:346 1.00149 
50 *891:346 *1595:CLK 15.0271 
51 *891:346 *891:357 3.493 
52 *891:357 *1627:CLK 13.7491 
53 *891:357 *891:366 19.6878 
54 *891:366 *1533:CLK 21.1278 
55 *891:366 *891:377 3.493 
56 *891:377 *1629:CLK 15.0271 
57 *891:377 *891:388 3.493 
58 *891:388 *1597:CLK 19.6422 
59 *891:388 *1405:CLK 18.5201 
*END

*D_NET *892 0.0277192
*CONN
*I *1590:CLK I *D sky130_fd_sc_hd__edfxtp_1
*I *1494:CLK I *D sky130_fd_sc_hd__edfxtp_1
*I *1654:CLK I *D sky130_fd_sc_hd__edfxtp_1
*I *1526:CLK I *D sky130_fd_sc_hd__edfxtp_1
*I *1416:CLK I *D sky130_fd_sc_hd__edfxtp_1
*I *1640:CLK I *D sky130_fd_sc_hd__edfxtp_1
*I *1608:CLK I *D sky130_fd_sc_hd__edfxtp_1
*I *1544:CLK I *D sky130_fd_sc_hd__edfxtp_1
*I *1480:CLK I *D sky130_fd_sc_hd__edfxtp_1
*I *1512:CLK I *D sky130_fd_sc_hd__edfxtp_1
*I *1384:CLK I *D sky130_fd_sc_hd__edfxtp_1
*I *1555:CLK I *D sky130_fd_sc_hd__edfxtp_1
*I *1459:CLK I *D sky130_fd_sc_hd__edfxtp_1
*I *1395:CLK I *D sky130_fd_sc_hd__edfxtp_1
*I *1576:CLK I *D sky130_fd_sc_hd__edfxtp_1
*I *2304:A I *D sky130_fd_sc_hd__clkinv_4
*I *1464:CLK I *D sky130_fd_sc_hd__edfxtp_1
*I *1411:CLK I *D sky130_fd_sc_hd__edfxtp_1
*I *1635:CLK I *D sky130_fd_sc_hd__edfxtp_1
*I *1603:CLK I *D sky130_fd_sc_hd__edfxtp_1
*I *1560:CLK I *D sky130_fd_sc_hd__edfxtp_1
*I *1496:CLK I *D sky130_fd_sc_hd__edfxtp_1
*I *1624:CLK I *D sky130_fd_sc_hd__edfxtp_1
*I *1400:CLK I *D sky130_fd_sc_hd__edfxtp_1
*I *1592:CLK I *D sky130_fd_sc_hd__edfxtp_1
*I *2296:X O *D sky130_fd_sc_hd__clkbuf_8
*CAP
1 *1590:CLK 0
2 *1494:CLK 0.000255154
3 *1654:CLK 0
4 *1526:CLK 0.00021085
5 *1416:CLK 0.00013116
6 *1640:CLK 0
7 *1608:CLK 3.20815e-05
8 *1544:CLK 0
9 *1480:CLK 5.3362e-05
10 *1512:CLK 0
11 *1384:CLK 7.75199e-05
12 *1555:CLK 0
13 *1459:CLK 0.000414
14 *1395:CLK 0.000465709
15 *1576:CLK 0.000491268
16 *2304:A 2.12792e-05
17 *1464:CLK 0
18 *1411:CLK 9.65604e-05
19 *1635:CLK 0.000208214
20 *1603:CLK 2.3451e-05
21 *1560:CLK 2.17856e-05
22 *1496:CLK 0.000286186
23 *1624:CLK 0
24 *1400:CLK 5.41282e-05
25 *1592:CLK 0.000305226
26 *2296:X 0.000717269
27 *892:281 0.000543055
28 *892:275 0.000391036
29 *892:262 0.00062265
30 *892:178 0.000943873
31 *892:176 0.000901206
32 *892:174 0.000914562
33 *892:161 0.000619004
34 *892:159 0.000266614
35 *892:155 0.000839954
36 *892:149 0.000832748
37 *892:143 0.000310796
38 *892:139 0.000152667
39 *892:137 0.000280104
40 *892:135 0.000459745
41 *892:124 0.000255883
42 *892:92 0.000534548
43 *892:77 0.000741324
44 *892:71 0.00068759
45 *892:58 0.000459971
46 *892:45 0.000698538
47 *892:36 0.000238525
48 *892:14 0.000500739
49 *892:12 0.000750039
50 *1459:CLK *1459:DE 0
51 *1480:CLK *1480:DE 0.000111557
52 *1576:CLK *1576:DE 6.92705e-05
53 *1635:CLK *895:27 6.26439e-05
54 *892:155 *1480:DE 8.43875e-05
55 *892:176 *1555:DE 3.59042e-05
56 *983:B *1592:CLK 5.92342e-05
57 *983:B *892:14 0.0001521
58 *1035:A0 *892:176 2.05191e-05
59 *1171:A *1395:CLK 0
60 *1171:B *1480:CLK 0.000106509
61 *1171:B *892:155 8.85947e-05
62 *1192:B *1576:CLK 0
63 *1206:B *1494:CLK 0
64 *1206:B *892:281 0
65 *1256:A *1608:CLK 6.5895e-05
66 *1256:A *892:149 0.000216535
67 *1267:A *1395:CLK 4.95892e-05
68 *1267:B *1395:CLK 1.43848e-05
69 *1267:B *1459:CLK 0
70 *1267:B *892:176 2.36617e-05
71 *1267:B *892:178 8.07227e-05
72 *1267:C *1395:CLK 1.10304e-05
73 *1347:C *892:92 2.45203e-05
74 *1363:B *892:161 0
75 *1366:A *1494:CLK 6.52892e-05
76 *1384:D *892:161 0
77 *1400:D *1400:CLK 0.00016553
78 *1464:D *892:71 0.000151909
79 *1491:D *1395:CLK 2.58338e-05
80 *1494:DE *1494:CLK 7.34948e-06
81 *1496:D *1496:CLK 3.99086e-06
82 *1496:DE *1496:CLK 4.09222e-05
83 *1512:D *892:159 2.66569e-05
84 *1512:DE *892:159 4.23622e-05
85 *1512:DE *892:161 3.12828e-05
86 *1526:DE *1526:CLK 2.65667e-05
87 *1555:D *892:176 0.000183544
88 *1555:D *892:178 0.000269315
89 *1560:D *1560:CLK 0.00016553
90 *1587:DE *1592:CLK 2.95757e-05
91 *1592:D *1592:CLK 0.000200042
92 *1592:DE *1592:CLK 3.39728e-05
93 *1603:DE *1603:CLK 6.08467e-05
94 *1624:D *892:36 0.000116453
95 *1624:D *892:45 3.12828e-05
96 *1635:D *1411:CLK 8.86088e-05
97 *1635:D *1635:CLK 0
98 *1635:D *892:92 5.04829e-06
99 *1640:D *892:143 9.01124e-06
100 *1654:DE *1494:CLK 9.12416e-06
101 *1654:DE *892:281 1.91391e-05
102 *20:15 *1576:CLK 0
103 *20:21 *1576:CLK 0
104 *20:34 *892:155 0
105 *29:41 *1395:CLK 0.000212898
106 *29:65 *1395:CLK 0
107 *418:194 *892:77 0.000377578
108 *418:194 *892:92 0.000358527
109 *418:207 *1560:CLK 0.00016553
110 *418:215 *892:262 0
111 *418:215 *892:275 0
112 *423:167 *892:137 0.000158161
113 *423:167 *892:139 0.00019819
114 *423:167 *892:143 0.000187513
115 *423:167 *892:149 2.1558e-06
116 *423:167 *892:262 0.000592091
117 *423:167 *892:275 0.000189496
118 *423:167 *892:281 0.000319606
119 *423:169 *892:149 7.25695e-05
120 *423:169 *892:155 0.000401492
121 *423:169 *892:159 5.36761e-05
122 *423:175 *892:159 6.14756e-06
123 *423:175 *892:161 7.86825e-06
124 *857:108 *1592:CLK 0.000222699
125 *857:160 *892:281 0.000111708
126 *859:39 *1592:CLK 0
127 *859:50 *1416:CLK 0.000362218
128 *860:82 *1603:CLK 1.03403e-05
129 *862:10 *892:45 0
130 *862:10 *892:58 0
131 *862:10 *892:71 0
132 *862:14 *1592:CLK 0
133 *862:14 *892:12 3.09374e-06
134 *862:14 *892:14 0
135 *867:20 *1635:CLK 4.90621e-05
136 *867:22 *1635:CLK 2.16355e-05
137 *867:33 *1635:CLK 0.000313631
138 *867:67 *1592:CLK 4.24445e-05
139 *867:77 *892:149 0
140 *867:192 *1635:CLK 5.04829e-06
141 *874:326 *1635:CLK 1.70219e-05
142 *874:326 *892:92 6.98849e-05
143 *874:328 *892:77 0.000156408
144 *874:328 *892:92 0.000288765
145 *874:334 *892:77 0.000217587
146 *875:166 *1592:CLK 8.62625e-06
147 *875:173 *1608:CLK 4.95311e-05
148 *875:173 *892:149 7.89747e-05
149 *875:189 *892:137 2.14021e-05
150 *875:189 *892:139 9.34724e-05
151 *875:189 *892:143 6.1351e-05
152 *875:211 *1608:CLK 1.92172e-05
153 *877:170 *892:14 6.87077e-05
154 *877:170 *892:36 0.000139927
155 *877:170 *892:45 0.00032511
156 *877:170 *892:58 0.000447433
157 *877:170 *892:71 0.000347913
158 *877:200 *892:12 0.000868394
159 *877:200 *892:124 8.40859e-05
160 *877:200 *892:135 1.34231e-05
*RES
1 *2296:X *892:12 30.0181 
2 *892:12 *892:14 4.11588 
3 *892:14 *1592:CLK 23.6453 
4 *892:14 *1400:CLK 15.5817 
5 *892:12 *892:36 2.87013 
6 *892:36 *1624:CLK 13.7491 
7 *892:36 *892:45 5.98452 
8 *892:45 *1496:CLK 18.2342 
9 *892:45 *892:58 8.06078 
10 *892:58 *1560:CLK 15.5817 
11 *892:58 *892:71 11.315 
12 *892:71 *892:77 18.6937 
13 *892:77 *1603:CLK 14.4725 
14 *892:77 *892:92 13.1476 
15 *892:92 *1635:CLK 25.3723 
16 *892:92 *1411:CLK 12.191 
17 *892:71 *1464:CLK 9.24915 
18 *2296:X *892:124 13.8548 
19 *892:124 *2304:A 9.82786 
20 *892:124 *892:135 5.778 
21 *892:135 *892:137 3.07775 
22 *892:137 *892:139 3.493 
23 *892:139 *892:143 7.993 
24 *892:143 *892:149 10.3802 
25 *892:149 *892:155 23.6683 
26 *892:155 *892:159 7.993 
27 *892:159 *892:161 3.07775 
28 *892:161 *1576:CLK 25.1698 
29 *892:161 *892:174 4.5 
30 *892:174 *892:176 19.0253 
31 *892:176 *892:178 3.49641 
32 *892:178 *1395:CLK 29.2545 
33 *892:178 *1459:CLK 27.4514 
34 *892:176 *1555:CLK 9.24915 
35 *892:174 *1384:CLK 11.0817 
36 *892:159 *1512:CLK 13.7491 
37 *892:155 *1480:CLK 12.191 
38 *892:149 *1544:CLK 13.7491 
39 *892:143 *1608:CLK 11.0817 
40 *892:139 *1640:CLK 13.7491 
41 *892:137 *1416:CLK 17.8002 
42 *892:135 *892:262 10.5523 
43 *892:262 *1526:CLK 18.3548 
44 *892:262 *892:275 7.993 
45 *892:275 *892:281 12.593 
46 *892:281 *1654:CLK 13.7491 
47 *892:281 *1494:CLK 20.184 
48 *892:275 *1590:CLK 9.24915 
*END

*D_NET *893 0.0322645
*CONN
*I *1528:CLK I *D sky130_fd_sc_hd__edfxtp_1
*I *2305:A I *D sky130_fd_sc_hd__inv_6
*I *1523:CLK I *D sky130_fd_sc_hd__edfxtp_1
*I *1619:CLK I *D sky130_fd_sc_hd__edfxtp_1
*I *1491:CLK I *D sky130_fd_sc_hd__edfxtp_1
*I *1651:CLK I *D sky130_fd_sc_hd__edfxtp_1
*I *1587:CLK I *D sky130_fd_sc_hd__edfxtp_1
*I *1412:CLK I *D sky130_fd_sc_hd__edfxtp_1
*I *1476:CLK I *D sky130_fd_sc_hd__edfxtp_1
*I *1572:CLK I *D sky130_fd_sc_hd__edfxtp_1
*I *1656:CLK I *D sky130_fd_sc_hd__edfxtp_1
*I *1571:CLK I *D sky130_fd_sc_hd__edfxtp_1
*I *1539:CLK I *D sky130_fd_sc_hd__edfxtp_1
*I *1614:CLK I *D sky130_fd_sc_hd__edfxtp_1
*I *1390:CLK I *D sky130_fd_sc_hd__edfxtp_1
*I *1582:CLK I *D sky130_fd_sc_hd__edfxtp_1
*I *1409:CLK I *D sky130_fd_sc_hd__edfxtp_1
*I *1633:CLK I *D sky130_fd_sc_hd__edfxtp_1
*I *1601:CLK I *D sky130_fd_sc_hd__edfxtp_1
*I *1473:CLK I *D sky130_fd_sc_hd__edfxtp_1
*I *1505:CLK I *D sky130_fd_sc_hd__edfxtp_1
*I *1569:CLK I *D sky130_fd_sc_hd__edfxtp_1
*I *1377:CLK I *D sky130_fd_sc_hd__edfxtp_1
*I *2297:X O *D sky130_fd_sc_hd__clkbuf_8
*CAP
1 *1528:CLK 0.000217303
2 *2305:A 7.79194e-05
3 *1523:CLK 3.73114e-05
4 *1619:CLK 7.32472e-05
5 *1491:CLK 0
6 *1651:CLK 0.000220472
7 *1587:CLK 8.10127e-05
8 *1412:CLK 0.000491365
9 *1476:CLK 0.000286369
10 *1572:CLK 0.000242911
11 *1656:CLK 0.000973894
12 *1571:CLK 0.000679197
13 *1539:CLK 0
14 *1614:CLK 1.09091e-05
15 *1390:CLK 2.72239e-05
16 *1582:CLK 1.36195e-05
17 *1409:CLK 3.5247e-05
18 *1633:CLK 0.000243355
19 *1601:CLK 9.27528e-05
20 *1473:CLK 2.7855e-05
21 *1505:CLK 0.000234428
22 *1569:CLK 0.000105507
23 *1377:CLK 0.000221645
24 *2297:X 0
25 *893:255 0.000505663
26 *893:251 0.000554904
27 *893:205 0.000669075
28 *893:203 0.00175214
29 *893:199 0.00131629
30 *893:193 0.000388977
31 *893:191 0.000391555
32 *893:189 0.000449242
33 *893:185 0.000445447
34 *893:154 0.0017174
35 *893:139 0.0012825
36 *893:128 0.000706762
37 *893:109 0.00103156
38 *893:76 0.000728007
39 *893:70 0.00109551
40 *893:64 0.00175977
41 *893:60 0.00162739
42 *893:47 0.000351953
43 *893:34 0.000533974
44 *893:23 0.000389631
45 *893:10 0.000780623
46 *893:4 0.000517015
47 *1473:CLK *904:147 6.08467e-05
48 *1476:CLK *1476:DE 3.39878e-06
49 *1571:CLK *903:215 9.90116e-05
50 *1572:CLK *1572:DE 2.02035e-05
51 *1572:CLK *904:74 0.000101818
52 *1601:CLK *904:147 1.69262e-05
53 *893:10 *896:61 6.46135e-05
54 *893:23 *896:61 4.06736e-05
55 *893:205 *1476:DE 1.66626e-05
56 *893:205 *904:74 7.59517e-05
57 *1107:A1 *1656:CLK 5.7825e-05
58 *1107:S *1656:CLK 0.000379505
59 *1121:A3 *1412:CLK 7.14746e-05
60 *1187:B *1571:CLK 7.72722e-05
61 *1235:C *893:255 0.000139236
62 *1331:B *893:191 0.000113481
63 *1331:B *893:251 5.99334e-05
64 *1331:C *893:193 2.02035e-05
65 *1331:C *893:251 1.58661e-05
66 *1377:D *1377:CLK 3.81806e-05
67 *1377:D *893:23 0
68 *1377:D *893:70 0
69 *1377:DE *1377:CLK 9.93106e-06
70 *1390:D *1390:CLK 0.000216467
71 *1409:D *893:70 5.49079e-06
72 *1409:DE *893:70 0.000108835
73 *1412:D *1412:CLK 2.19973e-05
74 *1476:D *1476:CLK 3.37023e-05
75 *1491:DE *1651:CLK 3.12828e-05
76 *1491:DE *893:255 8.44702e-05
77 *1505:D *1505:CLK 4.16434e-05
78 *1523:D *893:191 3.20069e-06
79 *1523:D *893:193 7.21493e-05
80 *1523:D *893:199 0.000231031
81 *1528:DE *1528:CLK 6.50727e-05
82 *1537:D *1633:CLK 0
83 *1539:D *1571:CLK 0.000136279
84 *1539:DE *1571:CLK 3.39728e-05
85 *1569:D *893:23 0
86 *1601:D *1601:CLK 6.78596e-05
87 *1604:DE *1633:CLK 0.000131416
88 *1614:D *1614:CLK 6.3657e-05
89 *1619:D *1619:CLK 5.97576e-05
90 *1619:D *893:251 0.000141472
91 *13:13 *1572:CLK 0
92 *13:13 *893:205 0
93 *13:28 *893:10 0
94 *13:28 *893:23 0
95 *13:100 *893:70 0.000192594
96 *13:100 *893:109 0.000210253
97 *15:17 *893:189 0
98 *15:45 *1571:CLK 0.000101945
99 *15:56 *1571:CLK 7.77309e-06
100 *68:308 *893:60 5.64988e-05
101 *68:318 *893:47 3.20069e-06
102 *68:318 *893:60 8.68133e-05
103 *69:226 *893:34 0
104 *69:226 *893:47 0
105 *334:14 *893:139 0
106 *334:14 *893:154 0.000154418
107 *418:142 *1412:CLK 0
108 *418:142 *1572:CLK 0
109 *418:142 *893:205 0
110 *418:194 *1571:CLK 0.000588104
111 *423:71 *893:109 0
112 *423:79 *893:64 7.79153e-05
113 *423:79 *893:109 0
114 *427:155 *1633:CLK 0
115 *512:20 *893:47 5.05252e-05
116 *512:20 *893:60 0.000334973
117 *541:16 *1523:CLK 1.03403e-05
118 *856:130 *893:189 0
119 *856:132 *893:189 0
120 *856:134 *893:189 0
121 *856:134 *893:191 0
122 *856:223 *2305:A 9.14505e-05
123 *857:45 *893:128 0.00022567
124 *857:45 *893:139 0.000356126
125 *857:45 *893:154 0.000159347
126 *857:53 *893:109 0.000106243
127 *857:53 *893:128 5.56367e-05
128 *857:59 *1633:CLK 4.91394e-06
129 *857:59 *893:76 6.85e-05
130 *857:96 *893:128 2.16355e-05
131 *858:47 *1651:CLK 0.000141871
132 *860:88 *893:70 2.99978e-05
133 *860:88 *893:109 0
134 *860:103 *1412:CLK 7.35086e-06
135 *863:100 *893:34 2.51147e-05
136 *863:100 *893:47 4.31326e-05
137 *865:199 *1505:CLK 1.11556e-05
138 *865:218 *1505:CLK 1.69178e-06
139 *865:220 *893:255 0.000466326
140 *867:16 *1571:CLK 0
141 *867:20 *1571:CLK 0
142 *868:96 *893:255 0
143 *874:81 *893:76 0
144 *874:83 *1601:CLK 0
145 *874:83 *1633:CLK 0
146 *874:83 *893:76 0
147 *874:99 *1633:CLK 1.37421e-05
148 *874:116 *1412:CLK 0
149 *875:85 *1571:CLK 0.000663316
150 *875:274 *1390:CLK 0.000216467
151 *877:29 *1614:CLK 6.3657e-05
152 *877:54 *1582:CLK 0
153 *877:54 *893:128 6.91561e-06
154 *880:59 *893:189 0.000161966
155 *880:59 *893:191 0.000593864
156 *880:59 *893:193 0.000185686
157 *880:59 *893:199 0.000245711
158 *880:59 *893:255 0
*RES
1 *2297:X *893:4 9.24915 
2 *893:4 *893:10 13.4319 
3 *893:10 *1377:CLK 17.6796 
4 *893:10 *893:23 4.32351 
5 *893:23 *1569:CLK 16.1364 
6 *893:23 *893:34 2.6625 
7 *893:34 *1505:CLK 17.6796 
8 *893:34 *893:47 4.32351 
9 *893:47 *1473:CLK 14.4725 
10 *893:47 *893:60 10.4845 
11 *893:60 *893:64 11.8786 
12 *893:64 *893:70 16.4809 
13 *893:70 *893:76 11.4211 
14 *893:76 *1601:CLK 16.1458 
15 *893:76 *1633:CLK 19.9413 
16 *893:70 *1409:CLK 10.2378 
17 *893:64 *893:109 14.5705 
18 *893:109 *1582:CLK 14.1278 
19 *893:109 *893:128 18.7202 
20 *893:128 *1390:CLK 16.1364 
21 *893:128 *893:139 6.81502 
22 *893:139 *1614:CLK 14.4725 
23 *893:139 *893:154 28.8215 
24 *893:154 *1539:CLK 9.24915 
25 *893:154 *1571:CLK 42.023 
26 *893:60 *1656:CLK 24.2717 
27 *893:4 *893:185 2.94181 
28 *893:185 *893:189 7.57775 
29 *893:189 *893:191 10.5523 
30 *893:191 *893:193 3.493 
31 *893:193 *893:199 9.5469 
32 *893:199 *893:203 20.1977 
33 *893:203 *893:205 3.493 
34 *893:205 *1572:CLK 19.3184 
35 *893:205 *1476:CLK 18.2342 
36 *893:203 *1412:CLK 22.8364 
37 *893:199 *1587:CLK 11.3711 
38 *893:193 *893:251 9.66022 
39 *893:251 *893:255 14.637 
40 *893:255 *1651:CLK 20.1489 
41 *893:255 *1491:CLK 13.7491 
42 *893:251 *1619:CLK 11.0817 
43 *893:191 *1523:CLK 14.4725 
44 *893:189 *2305:A 16.1364 
45 *893:185 *1528:CLK 14.4094 
*END

*D_NET *894 0.0353799
*CONN
*I *1618:CLK I *D sky130_fd_sc_hd__edfxtp_1
*I *1586:CLK I *D sky130_fd_sc_hd__edfxtp_1
*I *1522:CLK I *D sky130_fd_sc_hd__edfxtp_1
*I *1540:CLK I *D sky130_fd_sc_hd__edfxtp_1
*I *1537:CLK I *D sky130_fd_sc_hd__edfxtp_1
*I *1419:CLK I *D sky130_fd_sc_hd__edfxtp_1
*I *1387:CLK I *D sky130_fd_sc_hd__edfxtp_1
*I *1458:CLK I *D sky130_fd_sc_hd__edfxtp_1
*I *1554:CLK I *D sky130_fd_sc_hd__edfxtp_1
*I *1636:CLK I *D sky130_fd_sc_hd__edfxtp_1
*I *1604:CLK I *D sky130_fd_sc_hd__edfxtp_1
*I *1650:CLK I *D sky130_fd_sc_hd__edfxtp_1
*I *1394:CLK I *D sky130_fd_sc_hd__edfxtp_1
*I *2306:A I *D sky130_fd_sc_hd__clkinv_4
*I *1490:CLK I *D sky130_fd_sc_hd__edfxtp_1
*I *1468:CLK I *D sky130_fd_sc_hd__edfxtp_1
*I *1564:CLK I *D sky130_fd_sc_hd__edfxtp_1
*I *1380:CLK I *D sky130_fd_sc_hd__edfxtp_1
*I *1508:CLK I *D sky130_fd_sc_hd__edfxtp_1
*I *1660:CLK I *D sky130_fd_sc_hd__edfxtp_1
*I *1404:CLK I *D sky130_fd_sc_hd__edfxtp_1
*I *1628:CLK I *D sky130_fd_sc_hd__edfxtp_1
*I *1596:CLK I *D sky130_fd_sc_hd__edfxtp_1
*I *1532:CLK I *D sky130_fd_sc_hd__edfxtp_1
*I *1500:CLK I *D sky130_fd_sc_hd__edfxtp_1
*I *2298:X O *D sky130_fd_sc_hd__clkbuf_8
*CAP
1 *1618:CLK 0
2 *1586:CLK 0.000449833
3 *1522:CLK 0.000276619
4 *1540:CLK 8.06881e-05
5 *1537:CLK 7.15329e-05
6 *1419:CLK 0.00100994
7 *1387:CLK 5.06248e-05
8 *1458:CLK 1.09091e-05
9 *1554:CLK 0.00017404
10 *1636:CLK 0.00043317
11 *1604:CLK 0.000234743
12 *1650:CLK 0
13 *1394:CLK 0.000433111
14 *2306:A 0.000688283
15 *1490:CLK 1.71389e-05
16 *1468:CLK 2.31627e-05
17 *1564:CLK 0
18 *1380:CLK 0
19 *1508:CLK 0.000265809
20 *1660:CLK 0
21 *1404:CLK 0
22 *1628:CLK 0.000198353
23 *1596:CLK 9.88776e-05
24 *1532:CLK 9.4794e-05
25 *1500:CLK 0.000480556
26 *2298:X 0.000361317
27 *894:300 0.000913632
28 *894:294 0.000839487
29 *894:253 0.00153095
30 *894:242 0.00060007
31 *894:229 0.000857415
32 *894:225 0.000918691
33 *894:212 0.000833895
34 *894:199 0.000352909
35 *894:197 0.000595803
36 *894:173 0.001152
37 *894:156 0.000852939
38 *894:145 0.000239948
39 *894:139 0.00066113
40 *894:98 0.00102974
41 *894:57 0.000481249
42 *894:53 0.000542506
43 *894:51 0.000570152
44 *894:41 0.00103718
45 *894:37 0.00128753
46 *894:18 0.000635059
47 *894:16 0.000462845
48 *894:10 0.000671541
49 *1419:CLK *904:54 4.8387e-05
50 *1554:CLK *904:62 0
51 *894:10 *904:62 0
52 *894:242 *904:62 0
53 *894:253 *904:58 0
54 *977:B *1394:CLK 1.43983e-05
55 *977:C *1394:CLK 3.07828e-05
56 *1030:A0 *894:225 8.61427e-05
57 *1030:A2 *894:229 0.000476301
58 *1031:A1 *894:294 6.16053e-05
59 *1032:S *1458:CLK 6.3657e-05
60 *1080:A2 *894:41 1.28351e-05
61 *1080:A2 *894:98 0.000254509
62 *1082:S *894:16 0
63 *1144:A2 *1586:CLK 0.000233544
64 *1144:A2 *894:300 0.00015321
65 *1156:A0 *1419:CLK 3.0917e-05
66 *1157:A0 *1419:CLK 0.000122844
67 *1170:B *1490:CLK 1.43698e-05
68 *1170:B *894:212 0.000114659
69 *1170:C *1490:CLK 6.27718e-05
70 *1170:C *894:145 3.42463e-05
71 *1170:C *894:156 1.85244e-05
72 *1180:B *1604:CLK 0.000302352
73 *1180:B *894:212 1.94364e-05
74 *1202:B *894:253 4.9e-05
75 *1234:A *894:300 6.50586e-05
76 *1234:B *894:294 2.23124e-05
77 *1234:B *894:300 5.8256e-05
78 *1244:B *894:51 0
79 *1252:A *1604:CLK 4.0752e-05
80 *1252:B *1604:CLK 0.000364369
81 *1252:C *1604:CLK 0.000192906
82 *1266:B *894:229 0.000137345
83 *1266:C *894:229 3.37892e-05
84 *1276:C *894:10 1.94224e-05
85 *1276:C *894:16 0.000135054
86 *1340:A *894:57 6.27718e-05
87 *1340:B *1628:CLK 8.92568e-06
88 *1340:B *894:57 1.83992e-05
89 *1340:C *1628:CLK 0.00010716
90 *1340:C *894:51 5.37077e-05
91 *1340:C *894:53 6.49694e-05
92 *1340:C *894:57 9.27556e-05
93 *1362:A *894:253 0
94 *1380:D *1508:CLK 8.10514e-06
95 *1387:D *1419:CLK 0
96 *1394:D *1394:CLK 3.21568e-05
97 *1404:DE *1394:CLK 0
98 *1419:D *1419:CLK 0.000188229
99 *1419:DE *1419:CLK 3.42041e-05
100 *1458:D *1458:CLK 6.3657e-05
101 *1468:D *1468:CLK 6.27718e-05
102 *1468:D *894:10 0.000177955
103 *1490:D *1554:CLK 0.000208915
104 *1490:D *894:156 0.000132208
105 *1490:D *894:173 0.000420613
106 *1490:D *894:242 0.000187385
107 *1490:D *894:253 0.000107643
108 *1500:D *1500:CLK 3.81806e-05
109 *1500:DE *1500:CLK 9.93106e-06
110 *1508:DE *1508:CLK 0.000381471
111 *1522:D *1522:CLK 2.9377e-05
112 *1522:D *1586:CLK 8.16827e-05
113 *1522:D *894:300 0.000189955
114 *1522:DE *1522:CLK 2.12674e-05
115 *1532:DE *1532:CLK 0.000148002
116 *1532:DE *1596:CLK 0.000198334
117 *1537:D *1537:CLK 0.000110306
118 *1537:D *894:225 3.31733e-05
119 *1554:D *894:229 1.43848e-05
120 *1586:D *1586:CLK 9.52181e-06
121 *1586:DE *1586:CLK 1.38198e-05
122 *1604:D *1604:CLK 0.00031772
123 *1618:D *894:294 0.000171819
124 *1618:D *894:300 0.000171288
125 *1618:DE *894:294 3.44641e-05
126 *1628:D *1628:CLK 0.00012258
127 *1636:DE *1636:CLK 0.000114271
128 *1650:DE *894:173 3.44641e-05
129 *1660:D *894:41 0.000143579
130 *1660:DE *894:41 3.44641e-05
131 *7:26 *894:51 0
132 *16:15 *1508:CLK 0
133 *28:13 *1586:CLK 2.60879e-06
134 *28:15 *1586:CLK 4.03785e-05
135 *28:15 *894:300 1.46079e-05
136 *28:63 *1586:CLK 4.2598e-05
137 *68:260 *1419:CLK 0.000114336
138 *69:75 *894:173 0.000174205
139 *69:75 *894:253 5.1674e-06
140 *70:63 *1419:CLK 0
141 *70:63 *894:253 0
142 *127:53 *894:294 0.000104784
143 *402:14 *894:173 0.000143579
144 *423:94 *1419:CLK 0.000158552
145 *423:94 *894:253 0.00040479
146 *423:104 *894:173 0
147 *424:113 *894:10 0.000274715
148 *424:113 *894:145 0.000125888
149 *427:82 *894:300 5.95028e-05
150 *427:88 *894:300 4.13355e-05
151 *427:155 *1604:CLK 4.4226e-05
152 *427:155 *894:212 8.67636e-05
153 *427:155 *894:225 0.000253374
154 *493:16 *894:41 0.000104957
155 *493:16 *894:51 0.000181487
156 *525:18 *894:98 0.000165394
157 *541:16 *1540:CLK 1.1718e-05
158 *541:16 *894:145 6.08467e-05
159 *541:16 *894:197 0.00134891
160 *856:42 *1586:CLK 0
161 *857:381 *1394:CLK 8.25771e-05
162 *857:414 *1586:CLK 7.14746e-05
163 *858:213 *1419:CLK 0
164 *858:219 *1387:CLK 0.00016553
165 *865:102 *1500:CLK 0
166 *865:102 *894:18 0
167 *869:44 *1394:CLK 0.000380985
168 *869:52 *894:51 0.000242614
169 *874:140 *1540:CLK 0.000160617
170 *874:140 *894:197 6.08467e-05
*RES
1 *2298:X *894:10 23.7791 
2 *894:10 *894:16 8.13406 
3 *894:16 *894:18 3.07775 
4 *894:18 *1500:CLK 23.3221 
5 *894:18 *894:37 4.5 
6 *894:37 *894:41 14.058 
7 *894:41 *894:51 23.9171 
8 *894:51 *894:53 1.8326 
9 *894:53 *894:57 11.8786 
10 *894:57 *1532:CLK 16.8269 
11 *894:57 *1596:CLK 17.2421 
12 *894:53 *1628:CLK 25.0642 
13 *894:51 *1404:CLK 9.24915 
14 *894:41 *1660:CLK 9.24915 
15 *894:37 *894:98 20.1345 
16 *894:98 *1508:CLK 25.7932 
17 *894:98 *1380:CLK 9.24915 
18 *894:16 *1564:CLK 13.7491 
19 *894:10 *1468:CLK 14.4725 
20 *2298:X *894:139 9.82786 
21 *894:139 *894:145 8.30115 
22 *894:145 *1490:CLK 14.4725 
23 *894:145 *894:156 3.07775 
24 *894:156 *2306:A 14.4725 
25 *894:156 *894:173 24.1245 
26 *894:173 *1394:CLK 31.3336 
27 *894:173 *1650:CLK 9.24915 
28 *894:139 *894:197 17.4097 
29 *894:197 *894:199 4.5 
30 *894:199 *1604:CLK 24.7545 
31 *894:199 *894:212 3.90826 
32 *894:212 *1636:CLK 23.3462 
33 *894:212 *894:225 14.637 
34 *894:225 *894:229 20.1977 
35 *894:229 *1554:CLK 19.0748 
36 *894:229 *894:242 3.493 
37 *894:242 *1458:CLK 14.4725 
38 *894:242 *894:253 13.4591 
39 *894:253 *1387:CLK 15.5817 
40 *894:253 *1419:CLK 38.614 
41 *894:225 *1537:CLK 11.0817 
42 *894:197 *1540:CLK 11.6364 
43 *2306:A *894:294 26.056 
44 *894:294 *894:300 12.8773 
45 *894:300 *1522:CLK 18.2342 
46 *894:300 *1586:CLK 25.0492 
47 *894:294 *1618:CLK 9.24915 
*END

*D_NET *895 0.0104018
*CONN
*I *2301:A I *D sky130_fd_sc_hd__clkbuf_8
*I *2300:A I *D sky130_fd_sc_hd__clkbuf_8
*I *2299:X O *D sky130_fd_sc_hd__clkbuf_8
*CAP
1 *2301:A 0
2 *2300:A 0
3 *2299:X 0
4 *895:47 0.00219249
5 *895:27 0.00238541
6 *895:17 0.00472303
7 *895:6 0.000145124
8 *895:47 *897:58 1.06934e-05
9 *1019:A2 *895:47 0
10 *1411:D *895:27 0
11 *1635:CLK *895:27 6.26439e-05
12 *1635:D *895:27 4.33387e-05
13 *2266:A *895:27 0
14 *11:61 *895:47 2.20927e-06
15 *82:22 *895:47 0.00065467
16 *481:14 *895:27 6.08199e-05
17 *856:122 *895:27 0
18 *856:122 *895:47 0
19 *856:294 *895:47 0
20 *863:45 *895:17 7.86825e-06
21 *863:58 *895:27 0
22 *863:73 *895:27 5.45822e-05
23 *867:33 *895:27 5.11292e-05
24 *871:25 *895:47 7.75178e-06
*RES
1 *2299:X *895:6 13.7491 
2 *895:6 *895:17 4.36514 
3 *895:17 *895:27 15.1417 
4 *895:27 *2300:A 13.7491 
5 *895:17 *895:47 8.91296 
6 *895:47 *2301:A 13.7491 
*END

*D_NET *896 0.0428526
*CONN
*I *2294:A I *D sky130_fd_sc_hd__clkbuf_8
*I *2296:A I *D sky130_fd_sc_hd__clkbuf_8
*I *2295:A I *D sky130_fd_sc_hd__clkbuf_8
*I *2297:A I *D sky130_fd_sc_hd__clkbuf_8
*I *2298:A I *D sky130_fd_sc_hd__clkbuf_8
*I *2288:A I *D sky130_fd_sc_hd__clkbuf_8
*I *2300:X O *D sky130_fd_sc_hd__clkbuf_8
*CAP
1 *2294:A 0.00171536
2 *2296:A 8.22749e-05
3 *2295:A 0.00359932
4 *2297:A 0
5 *2298:A 0.00325798
6 *2288:A 0.00418111
7 *2300:X 0.000473017
8 *896:61 0.00543043
9 *896:55 0.00582824
10 *896:53 0.00280715
11 *896:45 0.00468985
12 *896:16 0.00496019
13 *2288:A *903:52 8.433e-06
14 *2295:A *905:72 1.91246e-05
15 *896:16 *903:230 0
16 *896:61 *1569:DE 7.84572e-05
17 *1061:A1 *2296:A 3.50524e-05
18 *1079:A2 *2295:A 0
19 *1091:A0 *2295:A 1.91246e-05
20 *1095:A0 *2288:A 0.000165394
21 *1095:A1 *2288:A 0.000161451
22 *1095:S0 *2288:A 9.5891e-05
23 *1095:S1 *2288:A 4.12349e-05
24 *1114:A2 *2288:A 4.03405e-05
25 *1121:A0 *2298:A 0.000103329
26 *1155:S1 *2288:A 3.88415e-05
27 *1411:DE *896:16 0
28 *1561:D *2294:A 0
29 *1569:D *2298:A 1.20478e-05
30 *1569:D *896:61 7.64398e-05
31 *3:13 *896:61 0.000182281
32 *4:5 *2294:A 0
33 *4:7 *2294:A 0
34 *12:17 *2288:A 0.000776077
35 *13:28 *2298:A 0
36 *13:28 *896:61 0
37 *15:17 *896:61 3.30982e-05
38 *69:81 *2298:A 0
39 *123:28 *2288:A 0
40 *123:62 *896:16 0
41 *124:123 *2294:A 0.000186134
42 *423:104 *2298:A 7.86825e-06
43 *424:67 *2288:A 0.0001438
44 *424:107 *2298:A 5.62562e-05
45 *477:18 *896:61 0
46 *481:14 *2288:A 0.00040608
47 *481:14 *2294:A 0.000641386
48 *481:14 *896:16 1.04399e-05
49 *481:14 *896:45 0.000160131
50 *497:18 *2294:A 0
51 *497:18 *896:16 0
52 *497:18 *896:45 0
53 *501:14 *2298:A 0.000509681
54 *521:22 *2288:A 0.000108408
55 *857:175 *2295:A 4.54052e-05
56 *857:190 *2295:A 0.000505208
57 *857:209 *2295:A 0.000368703
58 *858:165 *2288:A 0
59 *860:74 *896:16 0.000270186
60 *862:60 *2295:A 6.25468e-06
61 *877:88 *2298:A 0.00026791
62 *881:117 *896:53 0.000104058
63 *881:119 *2296:A 3.79013e-05
64 *893:10 *896:61 6.46135e-05
65 *893:23 *896:61 4.06736e-05
*RES
1 *2300:X *896:16 26.5795 
2 *896:16 *2288:A 46.5645 
3 *896:16 *896:45 0.967767 
4 *896:45 *896:53 6.68185 
5 *896:53 *896:55 0.162957 
6 *896:55 *896:61 12.8069 
7 *896:61 *2298:A 30.7024 
8 *896:61 *2297:A 13.7491 
9 *896:55 *2295:A 27.3842 
10 *896:53 *2296:A 18.8304 
11 *896:45 *2294:A 25.2338 
*END

*D_NET *897 0.0483795
*CONN
*I *2292:A I *D sky130_fd_sc_hd__clkbuf_8
*I *2293:A I *D sky130_fd_sc_hd__clkbuf_8
*I *2290:A I *D sky130_fd_sc_hd__clkbuf_8
*I *2291:A I *D sky130_fd_sc_hd__clkbuf_8
*I *2302:A I *D sky130_fd_sc_hd__clkbuf_8
*I *2289:A I *D sky130_fd_sc_hd__clkbuf_8
*I *2301:X O *D sky130_fd_sc_hd__clkbuf_8
*CAP
1 *2292:A 0.00278612
2 *2293:A 0.00109211
3 *2290:A 0.00446684
4 *2291:A 9.25334e-05
5 *2302:A 0
6 *2289:A 0.00192575
7 *2301:X 0
8 *897:98 0.0061659
9 *897:58 0.00571804
10 *897:50 0.00351894
11 *897:14 0.00243844
12 *897:4 0.000585302
13 *1025:S0 *2292:A 8.20833e-07
14 *1025:S1 *2292:A 3.36246e-05
15 *1125:S0 *897:98 0.000882854
16 *1160:A0 *2293:A 0
17 *1265:C *2292:A 0
18 *1472:DE *2291:A 0
19 *1489:D *2292:A 0
20 *1489:DE *2292:A 9.03462e-06
21 *1506:DE *2293:A 0.000243376
22 *1553:DE *2292:A 7.91081e-05
23 *1568:DE *897:98 0.000477426
24 *2286:A *2291:A 1.03594e-05
25 *11:61 *2289:A 0
26 *11:61 *897:14 0
27 *25:15 *2293:A 0
28 *27:44 *2292:A 0
29 *77:16 *2290:A 0.00224175
30 *82:22 *2290:A 0.00146999
31 *82:22 *897:58 0.00037535
32 *124:83 *897:98 0.00375366
33 *124:232 *2292:A 0.000128599
34 *124:242 *2292:A 1.91246e-05
35 *127:39 *2289:A 2.02035e-05
36 *128:32 *2289:A 0.000775702
37 *445:18 *2289:A 0.00699463
38 *545:16 *2291:A 1.34194e-05
39 *557:18 *2289:A 6.90255e-05
40 *821:12 *2290:A 0.000133939
41 *856:294 *897:98 0
42 *857:353 *2289:A 2.37478e-05
43 *858:12 *2289:A 0
44 *860:34 *2289:A 0.000867473
45 *861:23 *2290:A 0.000479233
46 *871:21 *2291:A 1.59906e-05
47 *871:25 *2289:A 1.29167e-05
48 *871:25 *897:14 0.000356381
49 *871:167 *897:14 1.67411e-05
50 *871:167 *897:50 1.86635e-05
51 *878:13 *2290:A 0
52 *881:379 *897:98 4.17054e-05
53 *887:10 *2291:A 1.40151e-05
54 *889:12 *2293:A 0
55 *895:47 *897:58 1.06934e-05
*RES
1 *2301:X *897:4 9.24915 
2 *897:4 *897:14 16.2695 
3 *897:14 *2289:A 32.6961 
4 *897:14 *2302:A 13.7491 
5 *897:4 *897:50 9.5254 
6 *897:50 *897:58 3.00167 
7 *897:58 *2291:A 18.4531 
8 *897:58 *2290:A 31.5316 
9 *897:50 *897:98 8.19027 
10 *897:98 *2293:A 21.056 
11 *897:98 *2292:A 26.5858 
*END

*D_NET *898 0.0164886
*CONN
*I *2314:A I *D sky130_fd_sc_hd__clkbuf_8
*I *2313:A I *D sky130_fd_sc_hd__clkbuf_8
*I *2312:A I *D sky130_fd_sc_hd__clkbuf_8
*I *2311:A I *D sky130_fd_sc_hd__clkbuf_8
*I *2310:X O *D sky130_fd_sc_hd__clkbuf_8
*CAP
1 *2314:A 5.46037e-05
2 *2313:A 8.58505e-05
3 *2312:A 7.56186e-05
4 *2311:A 0
5 *2310:X 6.46078e-05
6 *898:98 0.00020797
7 *898:86 0.0011288
8 *898:72 0.00153797
9 *898:66 0.00201854
10 *898:43 0.00141907
11 *898:25 0.00336224
12 *898:8 0.00360905
13 *2312:A *900:10 0.000164829
14 *2313:A *901:8 6.67428e-05
15 *2314:A *902:6 4.25677e-05
16 *898:25 *900:94 0
17 *898:86 *901:8 0.000104535
18 data_out[18] *898:25 2.30048e-05
19 *1004:SLEEP *898:98 0
20 *1019:B1 *898:86 5.53381e-05
21 *1041:A2 *898:66 0.000236148
22 *1054:B1 *898:43 0
23 *1068:A1 *898:25 8.61791e-05
24 *1068:A1 *898:43 1.1573e-05
25 *1114:A2 *898:25 0.000255637
26 *1114:B1 *2312:A 2.70404e-05
27 *1433:D *898:25 0
28 *1591:DE *898:66 0
29 *1665:A *898:72 0.000199513
30 *10:11 *898:43 3.69687e-06
31 *24:17 *898:43 3.41255e-05
32 *69:47 *898:66 0
33 *69:53 *898:25 0
34 *69:53 *898:66 0
35 *81:110 *898:25 4.47626e-05
36 *81:123 *898:25 0
37 *81:144 *898:43 2.08481e-05
38 *81:150 *898:43 4.78441e-05
39 *127:39 *898:66 8.60326e-05
40 *128:32 *898:66 2.36809e-05
41 *128:38 *898:66 0.00046378
42 *128:44 *898:66 6.31032e-05
43 *417:138 *898:25 8.03859e-05
44 *417:138 *898:66 0.000207693
45 *419:16 *898:66 0.000358559
46 *521:22 *898:25 0.000216695
47 *873:14 *898:86 0
48 *873:14 *898:98 0
*RES
1 *2310:X *898:8 15.0271 
2 *898:8 *898:25 20.7941 
3 *898:25 *898:43 16.8146 
4 *898:43 *2311:A 13.7491 
5 *898:25 *2312:A 16.5704 
6 *898:8 *898:66 49.1707 
7 *898:66 *898:72 17.4878 
8 *898:72 *898:86 28.419 
9 *898:86 *2313:A 11.4495 
10 *898:72 *898:98 3.493 
11 *898:98 *2314:A 15.4009 
*END

*D_NET *899 0.00691545
*CONN
*I *2315:A I *D sky130_fd_sc_hd__clkinvlp_2
*I *1441:CLK I *D sky130_fd_sc_hd__dfxtp_1
*I *1432:CLK I *D sky130_fd_sc_hd__dfxtp_1
*I *1426:CLK I *D sky130_fd_sc_hd__dfxtp_1
*I *1448:CLK I *D sky130_fd_sc_hd__dfxtp_1
*I *1438:CLK I *D sky130_fd_sc_hd__dfxtp_1
*I *1436:CLK I *D sky130_fd_sc_hd__dfxtp_1
*I *1421:CLK I *D sky130_fd_sc_hd__dfxtp_1
*I *1444:CLK I *D sky130_fd_sc_hd__dfxtp_1
*I *1427:CLK I *D sky130_fd_sc_hd__dfxtp_1
*I *1435:CLK I *D sky130_fd_sc_hd__dfxtp_1
*I *2311:X O *D sky130_fd_sc_hd__clkbuf_8
*CAP
1 *2315:A 0.000203554
2 *1441:CLK 0
3 *1432:CLK 0
4 *1426:CLK 0
5 *1448:CLK 0
6 *1438:CLK 0
7 *1436:CLK 0
8 *1421:CLK 0
9 *1444:CLK 0
10 *1427:CLK 0.000110471
11 *1435:CLK 7.19079e-05
12 *2311:X 0.00012106
13 *899:51 0.00021874
14 *899:49 0.000237368
15 *899:47 0.000657751
16 *899:45 0.000658072
17 *899:43 0.000476901
18 *899:41 0.000558669
19 *899:35 0.000521762
20 *899:27 0.000463135
21 *899:14 0.000413927
22 *899:10 0.000514072
23 data_out[15] *899:49 4.04445e-05
24 data_out[15] *899:51 4.11642e-05
25 *1038:A1 *899:47 0
26 *1038:A1 *899:49 0
27 *1038:A1 *899:51 0
28 *1093:A1 *899:45 4.75721e-06
29 *1093:A1 *899:47 6.32486e-05
30 *1143:A1 *899:43 3.9543e-05
31 *1432:D *899:35 1.41531e-05
32 *1435:D *1435:CLK 4.05756e-05
33 *1435:D *899:14 0.00020979
34 *1435:D *899:27 1.09551e-05
35 *1435:D *899:35 0
36 *1436:D *1427:CLK 6.58661e-05
37 *1436:D *899:49 3.35948e-05
38 *1436:D *899:51 6.32486e-05
39 *35:8 *899:35 8.65484e-06
40 *35:8 *899:41 1.03403e-05
41 *38:8 *1435:CLK 5.67857e-05
42 *38:8 *899:14 0.000153533
43 *41:10 *899:45 1.04548e-05
44 *52:10 *899:43 4.75721e-06
45 *52:10 *899:45 2.78348e-05
46 *61:10 *1427:CLK 0
47 *81:163 *899:27 0
48 *81:163 *899:35 0
49 *81:165 *899:35 0
50 *81:165 *899:41 0.000210445
51 *81:171 *899:41 0.000182869
52 *81:171 *899:43 0.000253365
53 *81:177 *899:43 0
54 *81:177 *899:45 0
55 *81:177 *899:47 0
56 *81:179 *899:47 0
57 *81:181 *899:47 0
58 *430:427 *899:41 0.000101533
59 *430:617 *899:43 0
60 *430:677 *899:47 0
61 *430:683 *899:47 0
62 *430:683 *899:49 0
63 *490:18 *899:10 4.01437e-05
64 *490:18 *899:27 0
*RES
1 *2311:X *899:10 21.3269 
2 *899:10 *899:14 7.95736 
3 *899:14 *1435:CLK 11.6364 
4 *899:14 *899:27 7.74122 
5 *899:27 *899:35 10.5383 
6 *899:35 *899:41 12.0384 
7 *899:41 *899:43 10.137 
8 *899:43 *899:45 3.493 
9 *899:45 *899:47 13.4591 
10 *899:47 *899:49 3.493 
11 *899:49 *899:51 3.493 
12 *899:51 *1427:CLK 17.2421 
13 *899:51 *1444:CLK 13.7491 
14 *899:49 *1421:CLK 13.7491 
15 *899:47 *1436:CLK 13.7491 
16 *899:45 *1438:CLK 13.7491 
17 *899:43 *1448:CLK 13.7491 
18 *899:41 *1426:CLK 13.7491 
19 *899:35 *1432:CLK 9.24915 
20 *899:27 *1441:CLK 13.7491 
21 *899:10 *2315:A 13.8548 
*END

*D_NET *900 0.00681398
*CONN
*I *1443:CLK I *D sky130_fd_sc_hd__dfxtp_1
*I *1439:CLK I *D sky130_fd_sc_hd__dfxtp_1
*I *1442:CLK I *D sky130_fd_sc_hd__dfxtp_1
*I *1433:CLK I *D sky130_fd_sc_hd__dfxtp_1
*I *1422:CLK I *D sky130_fd_sc_hd__dfxtp_1
*I *2316:A I *D sky130_fd_sc_hd__bufinv_16
*I *1437:CLK I *D sky130_fd_sc_hd__dfxtp_1
*I *1451:CLK I *D sky130_fd_sc_hd__dfxtp_1
*I *1430:CLK I *D sky130_fd_sc_hd__dfxtp_1
*I *1429:CLK I *D sky130_fd_sc_hd__dfxtp_1
*I *2312:X O *D sky130_fd_sc_hd__clkbuf_8
*CAP
1 *1443:CLK 0.000199042
2 *1439:CLK 0
3 *1442:CLK 0
4 *1433:CLK 4.17153e-05
5 *1422:CLK 0
6 *2316:A 0.000158662
7 *1437:CLK 0
8 *1451:CLK 2.27281e-05
9 *1430:CLK 0
10 *1429:CLK 0.000178248
11 *2312:X 0.000500793
12 *900:94 0.000533941
13 *900:24 0.000311601
14 *900:22 0.000237615
15 *900:20 0.000155486
16 *900:18 0.000289997
17 *900:16 0.000126966
18 *900:14 0.000201936
19 *900:12 0.000198549
20 *900:10 0.000943606
21 *1013:B1 *2316:A 2.16355e-05
22 *1014:B1 *900:18 0.000111343
23 *1014:B1 *900:20 8.88627e-05
24 *1053:A1 *1429:CLK 0
25 *1088:B1 *1451:CLK 6.08467e-05
26 *1089:B1 *1451:CLK 0.000111722
27 *1113:A2 *900:12 6.88594e-05
28 *1113:A2 *900:14 6.87752e-05
29 *1113:A2 *900:16 8.21602e-05
30 *1113:A2 *900:18 2.5386e-05
31 *1113:B1 *900:10 1.03403e-05
32 *1114:B1 *900:10 4.58077e-05
33 *1451:D *900:24 0
34 *2312:A *900:10 0.000164829
35 *63:8 *1429:CLK 1.43983e-05
36 *81:100 *1443:CLK 0.000104733
37 *81:123 *900:12 7.30564e-05
38 *81:123 *900:94 0.000179271
39 *81:125 *900:12 0.000162458
40 *81:125 *900:14 0.00018825
41 *81:125 *900:16 0.000202695
42 *81:125 *900:18 0.000169093
43 *81:125 *900:20 4.70104e-05
44 *81:129 *900:20 0.000174175
45 *81:129 *900:22 0.00019391
46 *81:129 *900:24 2.69685e-05
47 *81:140 *1451:CLK 1.41291e-05
48 *81:144 *1429:CLK 0
49 *81:144 *900:24 0
50 *430:52 *1443:CLK 9.34869e-05
51 *430:473 *1429:CLK 6.04064e-05
52 *430:473 *900:24 4.78524e-05
53 *430:492 *900:20 3.60501e-05
54 *430:492 *900:22 5.47345e-05
55 *430:492 *900:24 9.84581e-06
56 *898:25 *900:94 0
*RES
1 *2312:X *900:10 21.7065 
2 *900:10 *900:12 4.32351 
3 *900:12 *900:14 3.493 
4 *900:14 *900:16 3.493 
5 *900:16 *900:18 3.07775 
6 *900:18 *900:20 3.90826 
7 *900:20 *900:22 3.493 
8 *900:22 *900:24 3.493 
9 *900:24 *1429:CLK 18.5201 
10 *900:24 *1430:CLK 13.7491 
11 *900:22 *1451:CLK 15.0271 
12 *900:20 *1437:CLK 13.7491 
13 *900:18 *2316:A 17.2697 
14 *900:16 *1422:CLK 13.7491 
15 *900:14 *1433:CLK 14.4725 
16 *900:12 *1442:CLK 13.7491 
17 *900:10 *900:94 9.30653 
18 *900:94 *1439:CLK 13.7491 
19 *900:94 *1443:CLK 20.1489 
*END

*D_NET *901 0.00839114
*CONN
*I *1450:CLK I *D sky130_fd_sc_hd__dfxtp_1
*I *1425:CLK I *D sky130_fd_sc_hd__dfxtp_1
*I *1447:CLK I *D sky130_fd_sc_hd__dfxtp_1
*I *1446:CLK I *D sky130_fd_sc_hd__dfxtp_1
*I *1449:CLK I *D sky130_fd_sc_hd__dfxtp_1
*I *1423:CLK I *D sky130_fd_sc_hd__dfxtp_1
*I *1424:CLK I *D sky130_fd_sc_hd__dfxtp_1
*I *1431:CLK I *D sky130_fd_sc_hd__dfxtp_1
*I *1452:CLK I *D sky130_fd_sc_hd__dfxtp_1
*I *1428:CLK I *D sky130_fd_sc_hd__dfxtp_1
*I *1440:CLK I *D sky130_fd_sc_hd__dfxtp_1
*I *1445:CLK I *D sky130_fd_sc_hd__dfxtp_1
*I *1434:CLK I *D sky130_fd_sc_hd__dfxtp_1
*I *2313:X O *D sky130_fd_sc_hd__clkbuf_8
*CAP
1 *1450:CLK 0
2 *1425:CLK 0.000120508
3 *1447:CLK 0
4 *1446:CLK 0
5 *1449:CLK 0.00012469
6 *1423:CLK 3.57807e-05
7 *1424:CLK 0
8 *1431:CLK 2.52739e-05
9 *1452:CLK 8.1605e-05
10 *1428:CLK 0
11 *1440:CLK 0.000127429
12 *1445:CLK 4.4398e-05
13 *1434:CLK 0.000164462
14 *2313:X 0.000126642
15 *901:132 0.000276267
16 *901:123 0.000339121
17 *901:117 0.00038869
18 *901:102 0.000607828
19 *901:91 0.000445106
20 *901:28 0.000605486
21 *901:24 0.000673055
22 *901:22 0.000312768
23 *901:20 0.000665189
24 *901:18 0.000752765
25 *901:12 0.000473005
26 *901:8 0.000423488
27 data_out[3] *901:18 0
28 data_out[3] *901:20 0
29 data_out[4] *1425:CLK 7.30178e-05
30 *1023:A1 *901:12 0
31 *1023:A1 *901:18 0
32 *1023:A1 *901:91 0
33 *1023:A1 *901:102 0
34 *1023:A2 *901:102 0
35 *1059:B1 *901:20 0
36 *1118:B1 *1434:CLK 6.50586e-05
37 *1119:B1 *1434:CLK 4.02438e-05
38 *1133:A1 *901:102 3.5534e-06
39 *1133:A1 *901:117 6.53865e-05
40 *1133:A1 *901:123 0
41 *1133:A1 *901:132 0
42 *1133:A2 *1449:CLK 0.0001222
43 *1153:A1 *901:102 5.78568e-05
44 *1153:A1 *901:123 0
45 *1431:D *901:20 5.14461e-05
46 *1446:D *1425:CLK 0
47 *1446:D *901:132 0
48 *1450:D *901:117 0.000165181
49 *2313:A *901:8 6.67428e-05
50 *34:8 *1431:CLK 2.65667e-05
51 *81:19 *901:102 1.98263e-05
52 *81:19 *901:117 0.000164028
53 *81:23 *901:102 0.000162483
54 *81:74 *901:20 0
55 *81:80 *901:20 0
56 *81:80 *901:22 0
57 *81:80 *901:24 0
58 *81:80 *901:28 0
59 *81:86 *901:28 0
60 *81:94 *1434:CLK 0.000151009
61 *81:94 *1445:CLK 2.01503e-05
62 *81:94 *901:28 7.47249e-05
63 *430:46 *1434:CLK 3.7028e-05
64 *430:46 *901:28 0.000104397
65 *430:52 *1434:CLK 2.14842e-06
66 *898:86 *901:8 0.000104535
*RES
1 *2313:X *901:8 17.8002 
2 *901:8 *901:12 8.40826 
3 *901:12 *901:18 11.4894 
4 *901:18 *901:20 10.137 
5 *901:20 *901:22 3.493 
6 *901:22 *901:24 3.493 
7 *901:24 *901:28 11.0775 
8 *901:28 *1434:CLK 19.0065 
9 *901:28 *1445:CLK 14.8512 
10 *901:24 *1440:CLK 16.691 
11 *901:22 *1428:CLK 13.7491 
12 *901:20 *1452:CLK 15.5817 
13 *901:18 *1431:CLK 14.4725 
14 *901:12 *1424:CLK 9.24915 
15 *901:8 *901:91 3.07775 
16 *901:91 *1423:CLK 14.4725 
17 *901:91 *901:102 7.23027 
18 *901:102 *1449:CLK 17.2456 
19 *901:102 *901:117 11.0742 
20 *901:117 *901:123 8.7164 
21 *901:123 *1446:CLK 13.7491 
22 *901:123 *901:132 3.493 
23 *901:132 *1447:CLK 13.7491 
24 *901:132 *1425:CLK 17.2421 
25 *901:117 *1450:CLK 9.24915 
*END

*D_NET *902 0.016623
*CONN
*I *932:CLK I *D sky130_fd_sc_hd__dfxtp_1
*I *1692:CLK I *D sky130_fd_sc_hd__dfxtp_1
*I *1691:CLK I *D sky130_fd_sc_hd__dfxtp_4
*I *1690:CLK I *D sky130_fd_sc_hd__dfxtp_4
*I *1689:CLK I *D sky130_fd_sc_hd__dfxtp_4
*I *938:CLK I *D sky130_fd_sc_hd__dfxtp_1
*I *934:CLK I *D sky130_fd_sc_hd__dfxtp_1
*I *933:CLK I *D sky130_fd_sc_hd__dfxtp_1
*I *931:CLK I *D sky130_fd_sc_hd__dfxtp_1
*I *937:CLK I *D sky130_fd_sc_hd__dfxtp_1
*I *936:CLK I *D sky130_fd_sc_hd__dfxtp_1
*I *935:CLK I *D sky130_fd_sc_hd__dfxtp_1
*I *2317:A I *D sky130_fd_sc_hd__clkbuf_4
*I *2314:X O *D sky130_fd_sc_hd__clkbuf_8
*CAP
1 *932:CLK 0.000150528
2 *1692:CLK 0.000102007
3 *1691:CLK 0.000124761
4 *1690:CLK 1.26553e-05
5 *1689:CLK 0.00018676
6 *938:CLK 2.3034e-05
7 *934:CLK 0.00043624
8 *933:CLK 0
9 *931:CLK 0.000337186
10 *937:CLK 0.000187952
11 *936:CLK 4.72514e-05
12 *935:CLK 0.000247366
13 *2317:A 0.000106631
14 *2314:X 0
15 *902:132 0.000350944
16 *902:121 0.000606184
17 *902:108 0.00108154
18 *902:97 0.000586302
19 *902:77 0.000534637
20 *902:64 0.000942076
21 *902:60 0.000644336
22 *902:58 0.000279179
23 *902:45 0.000578998
24 *902:34 0.00066
25 *902:6 0.000547796
26 *902:4 0.000544152
27 empty *935:CLK 8.22405e-05
28 *923:A *934:CLK 0
29 *924:B *932:CLK 8.51551e-05
30 *924:B *902:58 2.77419e-05
31 *925:B *934:CLK 0.000224395
32 *929:B *902:64 0.000215587
33 *931:D *931:CLK 1.87611e-05
34 *932:D *932:CLK 9.29777e-05
35 *933:D *934:CLK 4.07059e-05
36 *935:D *935:CLK 2.14842e-06
37 *937:D *937:CLK 4.3616e-05
38 *938:D *902:108 1.87611e-05
39 *944:B *1692:CLK 0.000126411
40 *944:B *902:132 0.000199394
41 *1004:SLEEP *935:CLK 1.09738e-05
42 *1139:B1 *931:CLK 8.30019e-05
43 *1673:B *902:108 8.83981e-05
44 *1674:C *936:CLK 2.84892e-05
45 *1675:A *1689:CLK 0.000189759
46 *1679:B1 *902:121 8.34345e-05
47 *1681:B *902:121 0
48 *1681:C *1690:CLK 2.65667e-05
49 *1683:B *902:121 0.000163982
50 *1688:A2 *902:121 6.53527e-05
51 *1688:A2 *902:132 0.000111921
52 *1688:B1 *1691:CLK 9.31601e-05
53 *1688:C1 *1691:CLK 6.50586e-05
54 *1688:C1 *902:121 3.17456e-05
55 *1688:C1 *902:132 1.90335e-05
56 *1692:D *1692:CLK 3.92707e-05
57 *2314:A *902:6 4.25677e-05
58 *65:12 *2317:A 0.000113968
59 *65:12 *902:6 0.000724504
60 *65:12 *902:34 0.00016386
61 *68:28 *902:121 0
62 *76:22 *902:108 6.08467e-05
63 *81:425 *931:CLK 4.99151e-05
64 *81:425 *934:CLK 0.000158931
65 *81:425 *902:64 0.000166542
66 *81:425 *902:77 0.000158406
67 *81:431 *931:CLK 0
68 *81:445 *902:64 5.07314e-05
69 *81:452 *902:64 0.000229914
70 *81:471 *932:CLK 7.25373e-06
71 *81:471 *902:58 1.58588e-05
72 *81:471 *902:64 7.48633e-05
73 *81:471 *902:97 0.000293088
74 *81:471 *902:108 0.000309709
75 *127:10 *1692:CLK 7.0179e-06
76 *127:10 *902:121 4.62564e-05
77 *127:10 *902:132 1.23882e-05
78 *417:14 *934:CLK 0
79 *417:20 *934:CLK 0.0010016
80 *419:12 *932:CLK 1.07549e-05
81 *419:16 *902:34 9.76242e-05
82 *419:16 *902:45 0.000130092
83 *419:16 *902:58 2.65601e-05
84 *421:45 *1691:CLK 0.000214288
85 *423:12 *1692:CLK 2.58757e-05
86 *424:10 *1690:CLK 6.50586e-05
87 *537:16 *902:64 0.000110257
88 *537:16 *902:108 0.00012875
89 *545:16 *935:CLK 0
90 *824:10 *902:108 0.000126603
91 *828:18 *1689:CLK 0.000203411
92 *828:18 *902:121 0.000173046
93 *873:14 *902:34 0
94 *873:14 *902:45 0
95 *873:14 *902:58 0
96 *879:12 *1692:CLK 2.58757e-05
*RES
1 *2314:X *902:4 9.24915 
2 *902:4 *902:6 7.93324 
3 *902:6 *2317:A 12.2151 
4 *902:6 *935:CLK 24.6489 
5 *902:4 *902:34 13.8804 
6 *902:34 *936:CLK 15.0271 
7 *902:34 *902:45 7.64553 
8 *902:45 *937:CLK 17.125 
9 *902:45 *902:58 3.07775 
10 *902:58 *902:60 4.5 
11 *902:60 *902:64 19.0885 
12 *902:64 *931:CLK 22.1237 
13 *902:64 *902:77 3.07775 
14 *902:77 *933:CLK 13.7491 
15 *902:77 *934:CLK 30.8552 
16 *902:60 *902:97 4.05102 
17 *902:97 *938:CLK 9.82786 
18 *902:97 *902:108 17.4247 
19 *902:108 *1689:CLK 19.49 
20 *902:108 *902:121 13.0438 
21 *902:121 *1690:CLK 14.4725 
22 *902:121 *902:132 3.90826 
23 *902:132 *1691:CLK 18.3789 
24 *902:132 *1692:CLK 17.135 
25 *902:58 *932:CLK 18.4297 
*END

*D_NET *903 0.0784342
*CONN
*I *1552:DE I *D sky130_fd_sc_hd__edfxtp_1
*I *1549:DE I *D sky130_fd_sc_hd__edfxtp_1
*I *1566:DE I *D sky130_fd_sc_hd__edfxtp_1
*I *1558:DE I *D sky130_fd_sc_hd__edfxtp_1
*I *1560:DE I *D sky130_fd_sc_hd__edfxtp_1
*I *1571:DE I *D sky130_fd_sc_hd__edfxtp_1
*I *1550:DE I *D sky130_fd_sc_hd__edfxtp_1
*I *1579:DE I *D sky130_fd_sc_hd__edfxtp_1
*I *1569:DE I *D sky130_fd_sc_hd__edfxtp_1
*I *1554:DE I *D sky130_fd_sc_hd__edfxtp_1
*I *1564:DE I *D sky130_fd_sc_hd__edfxtp_1
*I *1576:DE I *D sky130_fd_sc_hd__edfxtp_1
*I *1555:DE I *D sky130_fd_sc_hd__edfxtp_1
*I *1572:DE I *D sky130_fd_sc_hd__edfxtp_1
*I *1567:DE I *D sky130_fd_sc_hd__edfxtp_1
*I *1556:DE I *D sky130_fd_sc_hd__edfxtp_1
*I *1559:DE I *D sky130_fd_sc_hd__edfxtp_1
*I *2318:X O *D sky130_fd_sc_hd__buf_12
*CAP
1 *1552:DE 6.55757e-05
2 *1549:DE 0.00141233
3 *1566:DE 2.02501e-05
4 *1558:DE 0.00019334
5 *1560:DE 7.93105e-05
6 *1571:DE 0
7 *1550:DE 0.000690519
8 *1579:DE 6.06506e-05
9 *1569:DE 0.00160546
10 *1554:DE 1.71478e-05
11 *1564:DE 3.82074e-05
12 *1576:DE 0.000960935
13 *1555:DE 3.07139e-05
14 *1572:DE 8.52726e-05
15 *1567:DE 0.000261297
16 *1556:DE 0.00011035
17 *1559:DE 4.28129e-05
18 *2318:X 0.000539029
19 *903:268 0.00409595
20 *903:249 0.00402599
21 *903:234 0.00156747
22 *903:230 0.00155473
23 *903:215 0.00287251
24 *903:190 0.00251246
25 *903:186 0.00154037
26 *903:106 0.0026458
27 *903:91 0.00308218
28 *903:85 0.00198056
29 *903:79 0.00108368
30 *903:69 0.00268122
31 *903:67 0.0014015
32 *903:52 0.00182478
33 *903:29 0.00101225
34 *903:27 0.00211536
35 *903:16 0.00127925
36 *903:10 0.00102005
37 *1549:DE *905:72 0.000373809
38 *903:27 *904:12 0.00019388
39 *903:91 *904:74 1.33219e-05
40 *903:106 *904:74 0.000105813
41 *963:B *903:91 0.000257196
42 *1020:A3 *903:215 6.54368e-06
43 *1020:S0 *1552:DE 4.31485e-06
44 *1020:S0 *903:190 5.34415e-05
45 *1030:A1 *903:79 0.00014106
46 *1035:S0 *1555:DE 4.69495e-06
47 *1037:S *1576:DE 0.000191635
48 *1037:S *903:106 0.000379316
49 *1051:A1 *903:268 0.000133086
50 *1051:S0 *903:268 0
51 *1052:A0 *903:268 0.00027759
52 *1055:A0 *903:16 3.41693e-05
53 *1082:S *903:79 0.000351015
54 *1082:S *903:85 0.00133515
55 *1090:A1 *1549:DE 0.000269012
56 *1092:A1 *1549:DE 0
57 *1095:A3 *903:52 5.10293e-05
58 *1095:S0 *903:52 0.000862994
59 *1095:S1 *903:52 0.000262228
60 *1122:S *903:106 0.000115819
61 *1129:A2 *903:186 0
62 *1155:A2 *903:67 0
63 *1155:A2 *903:69 0
64 *1155:A3 *903:67 0
65 *1155:S0 *903:67 0.000408937
66 *1155:S1 *903:67 0
67 *1176:C *903:230 2.48716e-05
68 *1187:B *903:215 1.2693e-05
69 *1192:B *1576:DE 7.50722e-05
70 *1192:C *1576:DE 1.27831e-06
71 *1203:B *1572:DE 9.22151e-06
72 *1212:B *1564:DE 1.7077e-05
73 *1262:C *1550:DE 0
74 *1266:B *903:79 5.37077e-05
75 *1271:B *1559:DE 1.38719e-05
76 *1271:B *903:16 1.0552e-05
77 *1313:A *903:69 0
78 *1313:C *903:69 0
79 *1363:B *1576:DE 0.00127814
80 *1363:B *903:106 0.00146823
81 *1384:D *1576:DE 1.66771e-05
82 *1398:CLK *1558:DE 7.82637e-06
83 *1411:DE *903:230 8.08397e-05
84 *1459:D *1555:DE 1.91391e-05
85 *1475:D *903:215 0.000283602
86 *1480:D *1576:DE 0.000160061
87 *1499:DE *903:268 0
88 *1537:D *903:69 0
89 *1549:CLK *1549:DE 0
90 *1549:D *1549:DE 3.56494e-05
91 *1552:D *1552:DE 3.59042e-05
92 *1552:D *903:190 5.31685e-05
93 *1554:D *1554:DE 3.39728e-05
94 *1558:CLK *1558:DE 7.0774e-05
95 *1558:D *1558:DE 6.42482e-05
96 *1567:D *1567:DE 1.20862e-05
97 *1571:CLK *903:215 9.90116e-05
98 *1571:D *903:215 3.15919e-05
99 *1571:D *903:230 3.95239e-05
100 *1572:CLK *1572:DE 2.02035e-05
101 *1572:D *1572:DE 0.0001362
102 *1576:CLK *1576:DE 6.92705e-05
103 *1576:D *1576:DE 6.92705e-05
104 *1598:D *903:268 0
105 *1622:CLK *903:268 0
106 *2266:A *903:230 0.000601588
107 *2271:A *903:190 0.000237184
108 *2272:A *903:52 0.000190134
109 *2288:A *903:52 8.433e-06
110 *1:22 *1549:DE 0
111 *20:15 *1576:DE 3.45933e-05
112 *68:77 *903:27 0
113 *68:104 *903:27 0.00122532
114 *68:104 *903:186 0.000184557
115 *68:110 *903:52 4.88333e-05
116 *68:302 *903:186 0.00156383
117 *68:304 *903:190 0.000402832
118 *69:138 *903:52 0.000228538
119 *69:183 *903:10 0.000982172
120 *70:63 *903:79 8.36586e-06
121 *83:57 *903:10 2.77428e-05
122 *123:16 *903:27 0.000226402
123 *123:20 *903:27 0
124 *123:28 *1556:DE 3.4248e-05
125 *123:28 *903:27 0
126 *123:28 *903:52 8.12668e-05
127 *123:43 *903:215 0.000194377
128 *362:14 *903:10 0
129 *418:30 *903:10 0.00107054
130 *418:207 *1560:DE 3.42041e-05
131 *418:207 *903:249 0.000101365
132 *418:249 *1549:DE 0.000367119
133 *423:30 *903:10 9.36613e-05
134 *423:175 *1576:DE 0.000103325
135 *424:73 *903:67 7.28719e-05
136 *424:99 *903:79 0.000257009
137 *424:107 *903:79 0.000101148
138 *424:107 *903:85 0.000443858
139 *424:223 *1556:DE 8.11133e-05
140 *424:234 *1550:DE 0.000179318
141 *424:236 *1550:DE 6.79599e-05
142 *424:240 *1550:DE 0.000289618
143 *424:278 *1569:DE 2.02035e-05
144 *427:155 *903:69 0
145 *433:14 *1549:DE 0.000211009
146 *451:14 *903:79 0.000126435
147 *457:16 *903:106 0
148 *465:34 *903:268 4.38221e-05
149 *469:18 *903:234 0.000565429
150 *469:18 *903:249 0.00302598
151 *469:18 *903:268 0.00119673
152 *477:18 *1569:DE 0.000235716
153 *501:14 *1549:DE 0.000200152
154 *525:18 *903:91 0.000531211
155 *525:18 *903:106 9.96839e-05
156 *857:43 *903:186 0
157 *857:45 *1550:DE 0
158 *858:85 *1576:DE 0.000111091
159 *858:85 *903:106 2.33958e-05
160 *858:173 *903:186 3.31811e-05
161 *862:10 *1560:DE 1.91651e-05
162 *862:70 *903:268 0.000258471
163 *862:80 *903:268 0.000146767
164 *863:45 *903:230 8.22873e-05
165 *863:58 *903:230 0.000362543
166 *863:100 *1569:DE 0.00145157
167 *865:102 *903:85 0.000962304
168 *865:102 *903:91 5.38612e-06
169 *865:239 *1576:DE 6.54319e-05
170 *865:315 *1550:DE 4.07176e-05
171 *866:23 *1558:DE 2.05184e-05
172 *867:16 *903:215 0
173 *867:16 *903:230 0
174 *867:20 *903:230 0
175 *867:46 *903:230 0
176 *868:14 *903:67 0
177 *868:27 *903:67 0.000454815
178 *868:27 *903:69 0.000985847
179 *868:29 *903:69 0.000153714
180 *868:29 *903:79 0.000110413
181 *868:56 *903:79 2.16355e-05
182 *868:177 *903:67 7.14746e-05
183 *873:55 *903:52 0.000889131
184 *873:91 *1550:DE 7.57302e-06
185 *874:81 *903:67 0
186 *874:81 *903:69 0
187 *874:83 *903:69 0
188 *874:338 *903:230 2.88865e-05
189 *874:344 *903:230 7.38721e-06
190 *874:453 *903:268 0
191 *874:459 *903:268 0
192 *874:461 *903:268 0
193 *875:112 *903:230 0
194 *877:170 *903:230 0.000977266
195 *880:41 *903:230 1.86178e-05
196 *880:51 *903:230 0.000566597
197 *881:174 *1566:DE 3.34544e-06
198 *881:259 *903:268 0
199 *882:196 *903:268 0
200 *890:89 *1558:DE 1.27831e-06
201 *891:103 *1549:DE 0
202 *892:176 *1555:DE 3.59042e-05
203 *896:16 *903:230 0
204 *896:61 *1569:DE 7.84572e-05
*RES
1 *2318:X *903:10 41.6743 
2 *903:10 *903:16 10.8992 
3 *903:16 *1559:DE 10.2076 
4 *903:16 *903:27 30.4166 
5 *903:27 *903:29 1.85642 
6 *903:29 *1556:DE 17.3457 
7 *903:29 *903:52 38.0656 
8 *903:52 *1567:DE 14.8374 
9 *903:52 *903:67 28.3404 
10 *903:67 *903:69 20.3107 
11 *903:69 *903:79 25.0939 
12 *903:79 *903:85 27.6509 
13 *903:85 *903:91 7.85126 
14 *903:91 *1572:DE 19.504 
15 *903:91 *903:106 5.25122 
16 *903:106 *1555:DE 17.9004 
17 *903:106 *1576:DE 29.748 
18 *903:85 *1564:DE 14.7076 
19 *903:79 *1554:DE 14.153 
20 *903:69 *1569:DE 25.985 
21 *903:67 *1579:DE 14.8523 
22 *903:27 *903:186 13.2854 
23 *903:186 *903:190 12.7684 
24 *903:190 *1550:DE 33.9475 
25 *903:190 *903:215 38.1045 
26 *903:215 *1571:DE 9.24915 
27 *903:215 *903:230 47.4356 
28 *903:230 *903:234 4.18357 
29 *903:234 *1560:DE 18.7309 
30 *903:234 *903:249 4.18035 
31 *903:249 *1558:DE 21.5462 
32 *903:249 *903:268 49.5077 
33 *903:268 *1566:DE 14.153 
34 *903:268 *1549:DE 43.3547 
35 *903:186 *1552:DE 15.2645 
*END

*D_NET *904 0.0412481
*CONN
*I *1460:DE I *D sky130_fd_sc_hd__edfxtp_1
*I *1471:DE I *D sky130_fd_sc_hd__edfxtp_1
*I *1483:DE I *D sky130_fd_sc_hd__edfxtp_1
*I *1473:DE I *D sky130_fd_sc_hd__edfxtp_1
*I *1458:DE I *D sky130_fd_sc_hd__edfxtp_1
*I *1468:DE I *D sky130_fd_sc_hd__edfxtp_1
*I *1476:DE I *D sky130_fd_sc_hd__edfxtp_1
*I *1459:DE I *D sky130_fd_sc_hd__edfxtp_1
*I *1480:DE I *D sky130_fd_sc_hd__edfxtp_1
*I *2319:X O *D sky130_fd_sc_hd__buf_6
*CAP
1 *1460:DE 0
2 *1471:DE 3.47795e-05
3 *1483:DE 0
4 *1473:DE 0
5 *1458:DE 1.66945e-05
6 *1468:DE 5.89153e-05
7 *1476:DE 3.36282e-05
8 *1459:DE 0.000375685
9 *1480:DE 0.000859145
10 *2319:X 0.000329047
11 *904:147 0.00205602
12 *904:74 0.00275162
13 *904:68 0.00254959
14 *904:62 0.00200021
15 *904:58 0.00130195
16 *904:54 0.00336687
17 *904:36 0.0016669
18 *904:26 0.00161884
19 *904:12 0.00121394
20 *978:C *1480:DE 0
21 *1032:S *1458:DE 3.43037e-05
22 *1036:A0 *1480:DE 1.43439e-05
23 *1037:A0 *1480:DE 0.000459485
24 *1037:S *1459:DE 0.000266309
25 *1037:S *904:74 0.00189573
26 *1082:S *904:62 0.00139552
27 *1106:A3 *904:147 5.70692e-05
28 *1122:S *904:74 0.000535343
29 *1156:A0 *904:54 7.26606e-05
30 *1156:S0 *904:54 0.000125121
31 *1157:A0 *904:54 0.000362178
32 *1157:S *904:54 0.000136945
33 *1171:B *1480:DE 0.000133759
34 *1183:A *904:36 7.77309e-06
35 *1202:B *904:58 0
36 *1267:B *1459:DE 0.000240677
37 *1267:B *1480:DE 0
38 *1313:B *904:147 6.50586e-05
39 *1313:C *904:147 2.50389e-05
40 *1419:CLK *904:54 4.8387e-05
41 *1459:CLK *1459:DE 0
42 *1459:D *1459:DE 0.000556078
43 *1460:D *904:26 0.000137121
44 *1471:D *1471:DE 8.37933e-05
45 *1473:CLK *904:147 6.08467e-05
46 *1473:D *904:147 3.57898e-05
47 *1476:CLK *1476:DE 3.39878e-06
48 *1476:D *904:74 0
49 *1480:CLK *1480:DE 0.000111557
50 *1480:D *1480:DE 3.15154e-05
51 *1483:D *904:36 0.000290629
52 *1483:D *904:54 3.15919e-05
53 *1490:D *904:62 0
54 *1492:D *904:26 0.000580398
55 *1554:CLK *904:62 0
56 *1572:CLK *904:74 0.000101818
57 *1579:D *904:36 0
58 *1601:CLK *904:147 1.69262e-05
59 *1601:D *904:147 8.81975e-05
60 *1601:DE *904:147 3.37073e-06
61 *2272:A *904:36 0
62 *68:260 *904:54 0.000122844
63 *68:318 *904:147 0.000614736
64 *69:65 *904:54 0
65 *70:63 *904:58 0.000526395
66 *70:63 *904:62 1.9511e-05
67 *123:20 *904:12 0
68 *418:72 *904:36 0.000499333
69 *418:87 *904:36 2.44285e-05
70 *423:94 *904:54 0.000335095
71 *424:67 *904:26 5.83021e-05
72 *424:73 *904:36 0
73 *424:83 *904:36 0.000482855
74 *424:113 *904:62 0
75 *424:364 *1480:DE 0.00149335
76 *433:14 *904:68 0.00298319
77 *433:14 *904:74 0.000383992
78 *501:14 *904:68 0
79 *512:20 *904:147 0.000360145
80 *551:14 *904:36 1.69178e-06
81 *551:14 *904:54 0.000232523
82 *763:20 *904:147 6.25372e-06
83 *865:57 *904:26 0.000332326
84 *865:79 *904:62 5.39635e-06
85 *865:239 *1459:DE 0.000301487
86 *865:239 *904:74 0.00130319
87 *868:10 *904:36 0.000259991
88 *868:14 *904:36 0.000743272
89 *868:27 *904:36 0
90 *868:109 *1480:DE 4.08862e-05
91 *884:14 *904:26 0.000280726
92 *884:319 *904:26 0.000724152
93 *884:330 *904:26 0.000357474
94 *884:339 *904:26 2.20021e-05
95 *892:155 *1480:DE 8.43875e-05
96 *893:205 *1476:DE 1.66626e-05
97 *893:205 *904:74 7.59517e-05
98 *894:10 *904:62 0
99 *894:242 *904:62 0
100 *894:253 *904:58 0
101 *903:27 *904:12 0.00019388
102 *903:91 *904:74 1.33219e-05
103 *903:106 *904:74 0.000105813
*RES
1 *2319:X *904:12 26.7276 
2 *904:12 *904:26 38.9218 
3 *904:26 *904:36 32.5548 
4 *904:36 *904:54 38.7493 
5 *904:54 *904:58 14.637 
6 *904:58 *904:62 27.6876 
7 *904:62 *904:68 10.8414 
8 *904:68 *904:74 11.7306 
9 *904:74 *1480:DE 46.4516 
10 *904:74 *1459:DE 27.8836 
11 *904:68 *1476:DE 14.5317 
12 *904:62 *1468:DE 15.0863 
13 *904:58 *1458:DE 14.153 
14 *904:54 *904:147 42.4453 
15 *904:147 *1473:DE 9.24915 
16 *904:36 *1483:DE 9.24915 
17 *904:26 *1471:DE 14.7076 
18 *904:12 *1460:DE 9.24915 
*END

*D_NET *905 0.0271041
*CONN
*I *1477:DE I *D sky130_fd_sc_hd__edfxtp_1
*I *1484:DE I *D sky130_fd_sc_hd__edfxtp_1
*I *1465:DE I *D sky130_fd_sc_hd__edfxtp_1
*I *1453:DE I *D sky130_fd_sc_hd__edfxtp_1
*I *1470:DE I *D sky130_fd_sc_hd__edfxtp_1
*I *1467:DE I *D sky130_fd_sc_hd__edfxtp_1
*I *1469:DE I *D sky130_fd_sc_hd__edfxtp_1
*I *2320:X O *D sky130_fd_sc_hd__buf_6
*CAP
1 *1477:DE 1.71478e-05
2 *1484:DE 8.2637e-05
3 *1465:DE 2.37667e-05
4 *1453:DE 0.000313466
5 *1470:DE 0.00046843
6 *1467:DE 0
7 *1469:DE 0
8 *2320:X 0.000399849
9 *905:72 0.00185519
10 *905:53 0.00281348
11 *905:49 0.002055
12 *905:36 0.00105374
13 *905:22 0.00146899
14 *905:12 0.00165525
15 *905:10 0.00128331
16 *905:10 *906:87 6.3657e-05
17 *905:10 *906:102 0.000145731
18 *1065:S1 *905:36 0.00152875
19 *1090:A3 *1470:DE 0.000122858
20 *1090:S1 *1470:DE 0.000119367
21 *1091:A0 *905:72 0.000136026
22 *1092:A0 *905:72 0
23 *1092:A1 *905:72 0
24 *1114:A2 *905:36 7.29209e-06
25 *1125:A1 *905:12 0
26 *1127:S *905:12 0.000764335
27 *1130:A1 *905:10 4.90558e-05
28 *1179:A *905:53 0
29 *1196:A *905:22 0.000128067
30 *1273:C *905:22 7.86847e-05
31 *1292:B *905:22 0.000155874
32 *1357:A *1453:DE 9.0845e-05
33 *1357:A *1470:DE 0.000120812
34 *1357:B *1470:DE 0.000601709
35 *1453:D *1453:DE 3.15154e-05
36 *1467:CLK *905:72 0
37 *1467:D *905:53 9.04668e-05
38 *1467:D *905:72 9.36063e-05
39 *1469:CLK *905:36 6.27718e-05
40 *1469:D *905:36 0.000130694
41 *1477:CLK *1477:DE 3.39728e-05
42 *1484:D *1484:DE 9.13061e-05
43 *1484:D *905:12 0.000139912
44 *1484:D *905:22 8.62625e-06
45 *1549:DE *905:72 0.000373809
46 *1561:D *905:22 6.31618e-05
47 *1561:D *905:36 5.41142e-05
48 *2295:A *905:72 1.91246e-05
49 *1:48 *905:72 0
50 *6:87 *905:53 0
51 *25:19 *905:22 5.47683e-05
52 *121:112 *905:10 0.000765753
53 *121:112 *905:12 0.000344286
54 *121:137 *905:12 0.000414651
55 *121:137 *905:22 5.04879e-05
56 *121:148 *905:22 2.09889e-05
57 *124:83 *905:12 0.00017614
58 *124:89 *905:12 0.000273383
59 *124:123 *905:22 5.11496e-05
60 *124:123 *905:36 2.80988e-05
61 *124:133 *905:36 1.36282e-05
62 *124:133 *905:49 4.34566e-05
63 *418:443 *905:12 0
64 *423:381 *905:36 0.000734909
65 *423:462 *905:10 2.15348e-05
66 *858:462 *905:36 0.00147283
67 *858:470 *905:36 0.000738387
68 *858:497 *905:72 0.000667638
69 *865:289 *1453:DE 2.99797e-05
70 *866:63 *905:53 0
71 *871:111 *905:22 0.000595665
72 *871:125 *905:22 7.37562e-05
73 *876:125 *905:12 0.000199031
74 *876:131 *905:12 2.51064e-05
75 *876:131 *905:22 0.000478502
76 *876:133 *905:22 0.000652938
77 *876:186 *905:53 0
78 *876:357 *905:10 0.000260263
79 *881:379 *905:12 3.88213e-05
80 *889:16 *905:22 4.69808e-06
81 *891:74 *1453:DE 6.55265e-05
82 *891:103 *1470:DE 1.1355e-05
83 *891:294 *905:53 0
*RES
1 *2320:X *905:10 30.15 
2 *905:10 *905:12 32.9759 
3 *905:12 *905:22 37.6114 
4 *905:22 *905:36 32.2781 
5 *905:36 *1469:DE 9.24915 
6 *905:36 *905:49 11.7942 
7 *905:49 *905:53 44.1199 
8 *905:53 *1467:DE 9.24915 
9 *905:53 *905:72 41.9915 
10 *905:72 *1470:DE 31.6066 
11 *905:72 *1453:DE 16.8026 
12 *905:22 *1465:DE 14.153 
13 *905:12 *1484:DE 15.841 
14 *905:10 *1477:DE 14.153 
*END

*D_NET *906 0.0308699
*CONN
*I *1481:DE I *D sky130_fd_sc_hd__edfxtp_1
*I *1479:DE I *D sky130_fd_sc_hd__edfxtp_1
*I *1461:DE I *D sky130_fd_sc_hd__edfxtp_1
*I *1474:DE I *D sky130_fd_sc_hd__edfxtp_1
*I *1466:DE I *D sky130_fd_sc_hd__edfxtp_1
*I *1457:DE I *D sky130_fd_sc_hd__edfxtp_1
*I *2320:A I *D sky130_fd_sc_hd__buf_6
*I *1478:DE I *D sky130_fd_sc_hd__edfxtp_1
*I *1455:DE I *D sky130_fd_sc_hd__edfxtp_1
*I *1482:DE I *D sky130_fd_sc_hd__edfxtp_1
*I *2321:X O *D sky130_fd_sc_hd__buf_6
*CAP
1 *1481:DE 0
2 *1479:DE 0.00120808
3 *1461:DE 2.37466e-05
4 *1474:DE 3.33583e-05
5 *1466:DE 0.000762364
6 *1457:DE 0
7 *2320:A 0
8 *1478:DE 7.76289e-05
9 *1455:DE 0
10 *1482:DE 0.000369705
11 *2321:X 0.00082203
12 *906:127 0.00175625
13 *906:121 0.00155733
14 *906:117 0.00277306
15 *906:102 0.00176777
16 *906:87 0.000929154
17 *906:72 0.000933752
18 *906:64 0.0022894
19 *906:37 0.00276853
20 *906:10 0.00237367
21 *993:A *906:127 2.31359e-05
22 *1015:A1 *906:64 1.43439e-05
23 *1017:S *906:64 0.000109427
24 *1025:A1 *906:117 0.000180193
25 *1045:A2 *906:127 8.94667e-05
26 *1045:A3 *906:121 0.000175674
27 *1045:A3 *906:127 0.000360759
28 *1110:A3 *1466:DE 0.000127179
29 *1110:A3 *906:127 0.000166129
30 *1130:A1 *906:102 0.000162441
31 *1130:S0 *1478:DE 7.35086e-06
32 *1145:A1 *906:72 6.12665e-05
33 *1145:A3 *906:64 0
34 *1150:A3 *1482:DE 1.78627e-05
35 *1286:A *906:87 0.000160617
36 *1287:C *1479:DE 0.000363555
37 *1289:C *906:64 5.52936e-06
38 *1359:A *906:37 7.82074e-05
39 *1418:CLK *906:10 0.000299796
40 *1455:D *906:37 6.46815e-05
41 *1455:D *906:64 7.2474e-05
42 *1457:D *906:102 7.18372e-05
43 *1457:D *906:117 6.37492e-05
44 *1461:D *906:121 0.000151412
45 *1474:D *906:127 4.51739e-05
46 *1478:D *1478:DE 6.66538e-05
47 *1478:D *906:72 4.20788e-05
48 *1481:D *906:64 3.15154e-05
49 *1482:D *1482:DE 0.000146652
50 *1514:CLK *1482:DE 1.03403e-05
51 *1514:CLK *906:10 0
52 *1557:D *906:121 0
53 *1557:D *906:127 0
54 *1562:DE *1466:DE 0.000381139
55 *1577:D *906:64 6.28701e-05
56 *1578:D *1482:DE 8.36429e-06
57 *1642:D *906:10 0.000156601
58 *121:180 *906:117 0
59 *122:29 *906:10 0
60 *124:27 *906:10 0.000366212
61 *124:46 *906:10 3.77568e-05
62 *418:377 *906:64 6.27718e-05
63 *418:383 *906:72 8.20742e-05
64 *423:358 *906:87 0.000160617
65 *423:462 *906:87 0.000541826
66 *423:462 *906:102 0.000161234
67 *427:431 *1479:DE 0
68 *427:472 *1466:DE 0.000233708
69 *427:472 *906:127 0.000156502
70 *440:14 *906:64 0.000312627
71 *465:24 *1466:DE 0.000572331
72 *857:27 *906:10 4.84257e-05
73 *858:364 *906:64 0.000305584
74 *858:406 *906:117 3.31736e-05
75 *870:56 *1479:DE 4.27074e-05
76 *870:62 *1479:DE 0.000212796
77 *875:34 *906:10 0.000269072
78 *875:34 *906:37 8.09625e-05
79 *875:44 *906:10 0
80 *876:81 *906:64 1.18914e-05
81 *876:102 *906:64 5.97973e-06
82 *876:104 *1478:DE 4.33979e-05
83 *876:104 *906:72 0.000196928
84 *876:106 *1478:DE 0.000101148
85 *876:350 *906:87 4.36367e-05
86 *876:357 *906:87 0.000144968
87 *878:148 *906:121 7.37562e-05
88 *878:152 *906:121 0
89 *878:154 *906:121 0
90 *881:387 *906:127 6.14682e-06
91 *881:405 *1466:DE 6.74412e-05
92 *886:170 *1482:DE 2.90638e-06
93 *886:172 *1482:DE 6.65668e-05
94 *886:172 *906:10 0
95 *886:182 *906:10 0
96 *886:228 *1482:DE 7.0698e-05
97 *886:228 *906:37 0.00124307
98 *887:287 *906:37 2.7191e-05
99 *887:293 *906:37 4.47179e-05
100 *888:40 *1479:DE 0.000175589
101 *888:62 *1479:DE 0.000342657
102 *889:239 *1474:DE 8.70942e-05
103 *905:10 *906:87 6.3657e-05
104 *905:10 *906:102 0.000145731
*RES
1 *2321:X *906:10 38.7338 
2 *906:10 *1482:DE 30.2818 
3 *906:10 *906:37 33.0346 
4 *906:37 *1455:DE 9.24915 
5 *906:37 *906:64 47.5501 
6 *906:64 *906:72 21.7368 
7 *906:72 *1478:DE 16.8155 
8 *906:72 *906:87 12.4332 
9 *906:87 *2320:A 9.24915 
10 *906:87 *906:102 27.8485 
11 *906:102 *1457:DE 9.24915 
12 *906:102 *906:117 25.2698 
13 *906:117 *906:121 20.8658 
14 *906:121 *906:127 27.6509 
15 *906:127 *1466:DE 39.6766 
16 *906:127 *1474:DE 14.7076 
17 *906:121 *1461:DE 14.153 
18 *906:117 *1479:DE 46.001 
19 *906:64 *1481:DE 9.24915 
*END
